     Program PWSCF v.7.3.1 starts on  7May2025 at 12:26:42

     Waiting for input...
     Reading input from standard input
Warning: card &CELL ignored
Warning: card / ignored
Warning: card &FCP ignored
Warning: card / ignored
Warning: card &RISM ignored
Warning: card / ignored

     Current dimensions of program PWSCF are:
     Max number of different atomic species (ntypx) = 10
     Max number of k-points (npk) =  40000
     Max angular momentum in pseudopotentials (lmaxx) =  4

     IMPORTANT: XC functional enforced from input :
     Exchange-correlation= PBE
                           (   1   4   3   4   0   0   0)
     Any further DFT definition will be discarded
     Please, verify this is what you really want

     Message from routine setup:
     using ibrav=0 with symmetry is DISCOURAGED, use correct ibrav instead
     Message from routine setup:
     Dynamics, you should have no symmetries

     K-points division:     npool     =      16
     R & G space division:  proc/nbgrp/npool/nimage =      24
     Subspace diagonalization in iterative solution of the eigenvalue problem:
     a serial algorithm will be used

     Message from routine divide_et_impera:
     suboptimal parallelization: some nodes have no k-points

     Using Slab Decomposition

     bravais-lattice index     =            0
     lattice parameter (alat)  =      13.3936  a.u.
     unit-cell volume          =    9490.8392 (a.u.)^3
     number of atoms/cell      =           22
     number of atomic types    =            2
     number of electrons       =       190.00
     number of Kohn-Sham states=          114
     kinetic-energy cutoff     =     100.0000  Ry
     charge density cutoff     =     400.0000  Ry
     scf convergence threshold =      1.0E-12
     mixing beta               =       0.7000
     number of iterations used =            8  plain     mixing
     energy convergence thresh.=      1.0E-04
     force convergence thresh. =      1.0E-06
     Exchange-correlation= PBE
                           (   1   4   3   4   0   0   0)
     nstep                     =           50

     celldm(1)=  13.393593  celldm(2)=   0.000000  celldm(3)=   0.000000
     celldm(4)=   0.000000  celldm(5)=   0.000000  celldm(6)=   0.000000

     crystal axes: (cart. coord. in units of alat)
               a(1) = (   0.866025   0.500000   0.000000 )
               a(2) = (  -0.866025   0.500000   0.000000 )
               a(3) = (   0.000000   0.000000   4.561238 )

     reciprocal axes: (cart. coord. in units 2 pi/alat)
               b(1) = (  0.577350  1.000000 -0.000000 )
               b(2) = ( -0.577350  1.000000  0.000000 )
               b(3) = (  0.000000 -0.000000  0.219239 )

     PseudoPot. # 1 for Nb read from file:
     /scratch-shared/mroesner/Nb3X8_cDFPT/pp/Nb_ONCV_PBE-1.2.upf
     MD5 check sum: 2c750ac0b6910ff4cf0ab5f6c4124a64
     Pseudo is Norm-conserving, Zval = 13.0
     Generated using ONCVPSP code by D. R. Hamann
     Using radial grid of  602 points,  6 beta functions with:
                l(1) =   0
                l(2) =   0
                l(3) =   1
                l(4) =   1
                l(5) =   2
                l(6) =   2

     PseudoPot. # 2 for Br read from file:
     /scratch-shared/mroesner/Nb3X8_cDFPT/pp/Br_ONCV_PBE-1.2.upf
     MD5 check sum: 5b50323dbf1c0ae0ed9e7f1e72c3f86c
     Pseudo is Norm-conserving, Zval =  7.0
     Generated using ONCVPSP code by D. R. Hamann
     Using radial grid of  602 points,  6 beta functions with:
                l(1) =   0
                l(2) =   0
                l(3) =   1
                l(4) =   1
                l(5) =   2
                l(6) =   2

     atomic species   valence    mass     pseudopotential
     Nb               13.00    92.90637     Nb( 1.00)
     Br                7.00    79.90400     Br( 1.00)

     12 Sym. Ops., with inversion, found

                                    s                        frac. trans.

      isym =  1     identity

 cryst.   s( 1) = (     1          0          0      )
                  (     0          1          0      )
                  (     0          0          1      )

 cart.    s( 1) = (  1.0000000 -0.0000000  0.0000000 )
                  (  0.0000000  1.0000000  0.0000000 )
                  (  0.0000000  0.0000000  1.0000000 )

      isym =  2     180 deg rotation - cart. axis [0,1,0]

[...]

      isym =  3     120 deg rotation - cryst. axis [0,0,1]

[...]

      isym =  6     180 deg rotation - cryst. axis [2,1,0]

[...]

      isym =  7     inversion

[...]

      isym =  8     inv. 180 deg rotation - cart. axis [0,1,0]

[...]

      isym =  9     inv. 120 deg rotation - cryst. axis [0,0,1]

 cryst.   s( 9) = (     0         -1          0      )
                  (     1          1          0      )
                  (     0          0         -1      )

 cart.    s( 9) = (  0.5000000  0.8660254  0.0000000 )
                  ( -0.8660254  0.5000000  0.0000000 )
                  (  0.0000000  0.0000000 -1.0000000 )

[...]

 cryst.   s(10) = (     1          1          0      )
                  (    -1          0          0      )
                  (     0          0         -1      )

 cart.    s(10) = (  0.5000000 -0.8660254  0.0000000 )
                  (  0.8660254  0.5000000  0.0000000 )
                  (  0.0000000  0.0000000 -1.0000000 )

[...]

      isym = 12     inv. 180 deg rotation - cryst. axis [2,1,0]

 cryst.   s(12) = (    -1          0          0      )
                  (     1          1          0      )
                  (     0          0          1      )

 cart.    s(12) = ( -0.5000000 -0.8660254  0.0000000 )
                  ( -0.8660254  0.5000000  0.0000000 )
                  (  0.0000000  0.0000000  1.0000000 )

   Cartesian axes

     site n.     atom                  positions (alat units)
         1        Nb     tau(   1) = (   0.2336976  -0.0000000  -0.4610860  )
         2        Nb     tau(   2) = (  -0.1168488   0.2023881  -0.4610860  )
         3        Nb     tau(   3) = (  -0.1168488  -0.2023881  -0.4610860  )
         4        Nb     tau(   4) = (  -0.2336976   0.0000000   0.4610860  )
         5        Nb     tau(   5) = (   0.1168488  -0.2023881   0.4610860  )
         6        Nb     tau(   6) = (   0.1168488   0.2023881   0.4610860  )
         7        Br     tau(   7) = (   0.0000000   0.0000000  -0.7391137  )
         8        Br     tau(   8) = (  -0.8603495  -0.0000000  -0.6642212  )
         9        Br     tau(   9) = (  -0.4358507  -0.2450845  -0.6642212  )
        10        Br     tau(  10) = (  -0.4358507   0.2450845  -0.6642212  )
        11        Br     tau(  11) = (   0.5773503  -0.0000000  -0.2610780  )
        12        Br     tau(  12) = (  -0.2882406   0.0000000  -0.2145794  )
        13        Br     tau(  13) = (   0.1441203  -0.2496236  -0.2145794  )
        14        Br     tau(  14) = (   0.1441203   0.2496236  -0.2145794  )
        15        Br     tau(  15) = (   0.2882406  -0.0000000   0.2145794  )
        16        Br     tau(  16) = (  -0.1441203   0.2496236   0.2145794  )
        17        Br     tau(  17) = (  -0.1441203  -0.2496236   0.2145794  )
        18        Br     tau(  18) = (  -0.5773503   0.0000000   0.2610780  )
        19        Br     tau(  19) = (   0.8603495   0.0000000   0.6642212  )
        20        Br     tau(  20) = (   0.4358507   0.2450845   0.6642212  )
        21        Br     tau(  21) = (   0.4358507  -0.2450845   0.6642212  )
        22        Br     tau(  22) = (   0.0000000   0.0000000   0.7391137  )

     DFT-D3 Dispersion Correction (no 3-body):
       Reference C6 values for interpolation:

         atom   Coordination number   C6
         Br         0.000           334.26
         Br         0.997           338.48
         Nb         0.000          2950.50
         Nb         1.954          1161.16
         Nb         2.922           857.79

       Values used:

         atom   Coordination number  R0_AB[au]  C6      C8
         Nb         8.090            3.647    857.79 111659.18
         Nb         8.090            3.647    857.79 111659.18
         Nb         8.090            3.647    857.79 111659.18
         Nb         8.090            3.647    857.79 111659.18
         Nb         8.090            3.647    857.79 111659.18
         Nb         8.090            3.647    857.79 111659.18
         Br         3.497            3.181    338.47  21401.43
         Br         2.760            3.181    338.47  21401.43
         Br         2.760            3.181    338.47  21401.43
         Br         2.760            3.181    338.47  21401.43
         Br         3.720            3.181    338.47  21401.43
         Br         2.861            3.181    338.47  21401.43
         Br         2.861            3.181    338.47  21401.43
         Br         2.861            3.181    338.47  21401.43
         Br         2.861            3.181    338.47  21401.43
         Br         2.861            3.181    338.47  21401.43
         Br         2.861            3.181    338.47  21401.43
         Br         3.720            3.181    338.47  21401.43
         Br         2.760            3.181    338.47  21401.43
         Br         2.760            3.181    338.47  21401.43
         Br         2.760            3.181    338.47  21401.43
         Br         3.497            3.181    338.47  21401.43

         Molecular C6 ( Ry / a.u.^6 ) =    219379.98

   Crystallographic axes

     site n.     atom                  positions (cryst. coord.)
         1        Nb     tau(   1) = (  0.1349254 -0.1349254 -0.1010879  )
         2        Nb     tau(   2) = (  0.1349254  0.2698508 -0.1010879  )
         3        Nb     tau(   3) = ( -0.2698508 -0.1349254 -0.1010879  )
         4        Nb     tau(   4) = ( -0.1349254  0.1349254  0.1010879  )
         5        Nb     tau(   5) = ( -0.1349254 -0.2698508  0.1010879  )
         6        Nb     tau(   6) = (  0.2698508  0.1349254  0.1010879  )
         7        Br     tau(   7) = (  0.0000000  0.0000000 -0.1620424  )
         8        Br     tau(   8) = ( -0.4967230  0.4967230 -0.1456230  )
         9        Br     tau(   9) = ( -0.4967230  0.0065540 -0.1456230  )
        10        Br     tau(  10) = ( -0.0065540  0.4967230 -0.1456230  )
        11        Br     tau(  11) = (  0.3333333 -0.3333333 -0.0572384  )
        12        Br     tau(  12) = ( -0.1664158  0.1664158 -0.0470441  )
        13        Br     tau(  13) = ( -0.1664158 -0.3328315 -0.0470441  )
        14        Br     tau(  14) = (  0.3328315  0.1664158 -0.0470441  )
        15        Br     tau(  15) = (  0.1664158 -0.1664158  0.0470441  )
        16        Br     tau(  16) = (  0.1664158  0.3328315  0.0470441  )
        17        Br     tau(  17) = ( -0.3328315 -0.1664158  0.0470441  )
        18        Br     tau(  18) = ( -0.3333333  0.3333333  0.0572384  )
        19        Br     tau(  19) = (  0.4967230 -0.4967230  0.1456230  )
        20        Br     tau(  20) = (  0.4967230 -0.0065540  0.1456230  )
        21        Br     tau(  21) = (  0.0065540 -0.4967230  0.1456230  )
        22        Br     tau(  22) = (  0.0000000  0.0000000  0.1620424  )

[...]
     atom    7 type  2   force =     0.00000000    0.00000000    0.23186441
     atom    8 type  2   force =    -0.08721390    0.00000000    0.13873860
     atom    9 type  2   force =     0.04360695   -0.07552945    0.13873860
     atom   10 type  2   force =     0.04360695    0.07552945    0.13873860
     atom   11 type  2   force =    -0.00000000   -0.00000000   -0.15464525
     atom   12 type  2   force =     0.11250999   -0.00000000   -0.15923238
     atom   13 type  2   force =    -0.05625499    0.09743651   -0.15923238
     atom   14 type  2   force =    -0.05625499   -0.09743651   -0.15923238
     atom   15 type  2   force =    -0.11250999    0.00000000    0.15923238
     atom   16 type  2   force =     0.05625499   -0.09743651    0.15923238
     atom   17 type  2   force =     0.05625499    0.09743651    0.15923238
     atom   18 type  2   force =     0.00000000   -0.00000000    0.15464525
     atom   19 type  2   force =     0.08721390    0.00000000   -0.13873860
     atom   20 type  2   force =    -0.04360695    0.07552945   -0.13873860
     atom   21 type  2   force =    -0.04360695   -0.07552945   -0.13873860
     atom   22 type  2   force =     0.00000000    0.00000000   -0.23186441
     The ionic contribution  to forces
     atom    1 type  1   force =     9.67123364    0.00000000  -60.38664445
     atom    2 type  1   force =    -4.83561682    8.37553402  -60.38664445
     atom    3 type  1   force =    -4.83561682   -8.37553402  -60.38664445
     atom    4 type  1   force =    -9.67123364   -0.00000000   60.38664445
     atom    5 type  1   force =     4.83561682   -8.37553402   60.38664445
     atom    6 type  1   force =     4.83561682    8.37553402   60.38664445
     atom    7 type  2   force =     0.00000000    0.00000000  -64.40312468
     atom    8 type  2   force =     2.90585811   -0.00000000  -53.83311452
     atom    9 type  2   force =    -1.45292906    2.51654694  -53.83311452
     atom   10 type  2   force =    -1.45292906   -2.51654694  -53.83311452
     atom   11 type  2   force =     0.00000000   -0.00000000   -9.95113089
     atom   12 type  2   force =    -6.16454128    0.00000000   -5.98967290
     atom   13 type  2   force =     3.08227064   -5.33864935   -5.98967290
     atom   14 type  2   force =     3.08227064    5.33864935   -5.98967290
     atom   15 type  2   force =     6.16454128   -0.00000000    5.98967290
     atom   16 type  2   force =    -3.08227064    5.33864935    5.98967290
     atom   17 type  2   force =    -3.08227064   -5.33864935    5.98967290
     atom   18 type  2   force =    -0.00000000    0.00000000    9.95113089
     atom   19 type  2   force =    -2.90585811    0.00000000   53.83311452
     atom   20 type  2   force =     1.45292906   -2.51654694   53.83311452
     atom   21 type  2   force =     1.45292906    2.51654694   53.83311452
     atom   22 type  2   force =    -0.00000000   -0.00000000   64.40312468
     The local contribution  to forces
     atom    1 type  1   force =    -9.46632030   -0.00000000   60.42164981
     atom    2 type  1   force =     4.73316015   -8.19807386   60.42164981
     atom    3 type  1   force =     4.73316015    8.19807386   60.42164981
     atom    4 type  1   force =     9.46632030    0.00000000  -60.42164981
     atom    5 type  1   force =    -4.73316015    8.19807386  -60.42164981
     atom    6 type  1   force =    -4.73316015   -8.19807386  -60.42164981
     atom    7 type  2   force =     0.00000000    0.00000000   64.16990210
     atom    8 type  2   force =    -2.81942008    0.00000000   53.69289968
     atom    9 type  2   force =     1.40971004   -2.44168941   53.69289968
     atom   10 type  2   force =     1.40971004    2.44168941   53.69289968
     atom   11 type  2   force =     0.00000000   -0.00000000   10.10262875
     atom   12 type  2   force =     6.05284484   -0.00000000    6.14841630
     atom   13 type  2   force =    -3.02642242    5.24191740    6.14841630
     atom   14 type  2   force =    -3.02642242   -5.24191740    6.14841630
     atom   15 type  2   force =    -6.05284484    0.00000000   -6.14841630
     atom   16 type  2   force =     3.02642242   -5.24191740   -6.14841630
     atom   17 type  2   force =     3.02642242    5.24191740   -6.14841630
     atom   18 type  2   force =    -0.00000000    0.00000000  -10.10262875
     atom   19 type  2   force =     2.81942008   -0.00000000  -53.69289968
     atom   20 type  2   force =    -1.40971004    2.44168941  -53.69289968
     atom   21 type  2   force =    -1.40971004   -2.44168941  -53.69289968
     atom   22 type  2   force =    -0.00000000   -0.00000000  -64.16990210
     The core correction contribution to forces
     atom    1 type  1   force =     0.00000000    0.00000000    0.00000000
     atom    2 type  1   force =     0.00000000    0.00000000    0.00000000
     atom    3 type  1   force =     0.00000000    0.00000000    0.00000000
     atom    4 type  1   force =     0.00000000    0.00000000    0.00000000
     atom    5 type  1   force =     0.00000000    0.00000000    0.00000000
     atom    6 type  1   force =     0.00000000    0.00000000    0.00000000
     atom    7 type  2   force =     0.00000000    0.00000000    0.00000000
     atom    8 type  2   force =     0.00000000    0.00000000    0.00000000
     atom    9 type  2   force =     0.00000000    0.00000000    0.00000000
     atom   10 type  2   force =     0.00000000    0.00000000    0.00000000
     atom   11 type  2   force =     0.00000000    0.00000000    0.00000000
     atom   12 type  2   force =     0.00000000    0.00000000    0.00000000
     atom   13 type  2   force =     0.00000000    0.00000000    0.00000000
     atom   14 type  2   force =     0.00000000    0.00000000    0.00000000
     atom   15 type  2   force =     0.00000000    0.00000000    0.00000000
     atom   16 type  2   force =     0.00000000    0.00000000    0.00000000
     atom   17 type  2   force =     0.00000000    0.00000000    0.00000000
     atom   18 type  2   force =     0.00000000    0.00000000    0.00000000
     atom   19 type  2   force =     0.00000000    0.00000000    0.00000000
     atom   20 type  2   force =     0.00000000    0.00000000    0.00000000
     atom   21 type  2   force =     0.00000000    0.00000000    0.00000000
     atom   22 type  2   force =     0.00000000    0.00000000    0.00000000
     The Hubbard contrib.    to forces
     atom    1 type  1   force =     0.00000000    0.00000000    0.00000000
     atom    2 type  1   force =     0.00000000    0.00000000    0.00000000
     atom    3 type  1   force =     0.00000000    0.00000000    0.00000000
     atom    4 type  1   force =     0.00000000    0.00000000    0.00000000
     atom    5 type  1   force =     0.00000000    0.00000000    0.00000000
     atom    6 type  1   force =     0.00000000    0.00000000    0.00000000
     atom    7 type  2   force =     0.00000000    0.00000000    0.00000000
     atom    8 type  2   force =     0.00000000    0.00000000    0.00000000
     atom    9 type  2   force =     0.00000000    0.00000000    0.00000000
     atom   10 type  2   force =     0.00000000    0.00000000    0.00000000
     atom   11 type  2   force =     0.00000000    0.00000000    0.00000000
     atom   12 type  2   force =     0.00000000    0.00000000    0.00000000
     atom   13 type  2   force =     0.00000000    0.00000000    0.00000000
     atom   14 type  2   force =     0.00000000    0.00000000    0.00000000
     atom   15 type  2   force =     0.00000000    0.00000000    0.00000000
     atom   16 type  2   force =     0.00000000    0.00000000    0.00000000
     atom   17 type  2   force =     0.00000000    0.00000000    0.00000000
     atom   18 type  2   force =     0.00000000    0.00000000    0.00000000
     atom   19 type  2   force =     0.00000000    0.00000000    0.00000000
     atom   20 type  2   force =     0.00000000    0.00000000    0.00000000
     atom   21 type  2   force =     0.00000000    0.00000000    0.00000000
     atom   22 type  2   force =     0.00000000    0.00000000    0.00000000
     The SCF correction term to forces
     atom    1 type  1   force =     0.00000008   -0.00000000   -0.00000051
     atom    2 type  1   force =    -0.00000004    0.00000007   -0.00000051
     atom    3 type  1   force =    -0.00000004   -0.00000007   -0.00000051
     atom    4 type  1   force =    -0.00000008    0.00000000    0.00000051
     atom    5 type  1   force =     0.00000004   -0.00000007    0.00000051
     atom    6 type  1   force =     0.00000004    0.00000007    0.00000051
     atom    7 type  2   force =    -0.00000000    0.00000000   -0.00000025
     atom    8 type  2   force =     0.00000003    0.00000000   -0.00000032
     atom    9 type  2   force =    -0.00000001    0.00000002   -0.00000032
     atom   10 type  2   force =    -0.00000001   -0.00000002   -0.00000032
     atom   11 type  2   force =     0.00000000   -0.00000000   -0.00000013
     atom   12 type  2   force =    -0.00000002    0.00000000   -0.00000007
     atom   13 type  2   force =     0.00000001   -0.00000001   -0.00000007
     atom   14 type  2   force =     0.00000001    0.00000001   -0.00000007
     atom   15 type  2   force =     0.00000002   -0.00000000    0.00000007
     atom   16 type  2   force =    -0.00000001    0.00000001    0.00000007
     atom   17 type  2   force =    -0.00000001   -0.00000001    0.00000007
     atom   18 type  2   force =     0.00000000    0.00000000    0.00000013
     atom   19 type  2   force =    -0.00000003   -0.00000000    0.00000032
     atom   20 type  2   force =     0.00000001   -0.00000002    0.00000032
     atom   21 type  2   force =     0.00000001    0.00000002    0.00000032
     atom   22 type  2   force =     0.00000000    0.00000000    0.00000025

     DFT-D3 dispersion contribution to forces:
     atom    1 type  1   force =    -0.00165265    0.00000000    0.00240531
     atom    2 type  1   force =     0.00082632   -0.00143123    0.00240531
     atom    3 type  1   force =     0.00082632    0.00143123    0.00240531
     atom    4 type  1   force =     0.00165265   -0.00000000   -0.00240531
     atom    5 type  1   force =    -0.00082632    0.00143123   -0.00240531
     atom    6 type  1   force =    -0.00082632   -0.00143123   -0.00240531
     atom    7 type  2   force =     0.00000000   -0.00000000    0.00135759
     atom    8 type  2   force =     0.00077602   -0.00000000    0.00147596
     atom    9 type  2   force =    -0.00038801    0.00067206    0.00147596
     atom   10 type  2   force =    -0.00038801   -0.00067206    0.00147596
     atom   11 type  2   force =     0.00000000   -0.00000000    0.00314667
     atom   12 type  2   force =    -0.00081352    0.00000000    0.00048847
     atom   13 type  2   force =     0.00040676   -0.00070453    0.00048847
     atom   14 type  2   force =     0.00040676    0.00070453    0.00048847
     atom   15 type  2   force =     0.00081352   -0.00000000   -0.00048847
     atom   16 type  2   force =    -0.00040676    0.00070453   -0.00048847
     atom   17 type  2   force =    -0.00040676   -0.00070453   -0.00048847
     atom   18 type  2   force =    -0.00000000    0.00000000   -0.00314667
     atom   19 type  2   force =    -0.00077602    0.00000000   -0.00147596
     atom   20 type  2   force =     0.00038801   -0.00067206   -0.00147596
     atom   21 type  2   force =     0.00038801    0.00067206   -0.00147596
     atom   22 type  2   force =    -0.00000000   -0.00000000   -0.00135759

     Total force =     0.000003     Total SCF correction =     0.000002

     DFT-D3 dispersion Force =     0.009832
     SCF correction compared to forces is large: reduce conv_thr to get better values

     Computing stress (Cartesian axis) and pressure

          total   stress  (Ry/bohr**3)                   (kbar)     P=        0.67
   0.00000710   0.00000000   0.00000000            1.04        0.00        0.00
   0.00000000   0.00000710   0.00000000            0.00        1.04        0.00
   0.00000000   0.00000000  -0.00000049            0.00        0.00       -0.07

     kinetic stress (kbar)   3635.76     -0.00      0.00
                               -0.00   3635.76      0.00
                               -0.00     -0.00   3593.22

     local   stress (kbar)-181953.25      0.00     -0.00
                                0.00-181953.25     -0.00
                               -0.00     -0.00 178870.11

     nonloc. stress (kbar)   1930.84     -0.00     -0.00
                               -0.00   1930.84     -0.00
                                0.00     -0.00   1939.75

     hartree stress (kbar)  90486.34     -0.00      0.00
                               -0.00  90486.34      0.00
                                0.00      0.00 -88052.26

     exc-cor stress (kbar)   -801.65      0.00     -0.00
                                0.00   -801.65     -0.00
                               -0.00     -0.00   -803.27

     corecor stress (kbar)      0.00      0.00      0.00
                                0.00      0.00      0.00
                                0.00      0.00      0.00

     ewald   stress (kbar)  86707.30      0.00      0.00
                                0.00  86707.30      0.00
                                0.00      0.00 -95544.08

     hubbard stress (kbar)      0.00      0.00      0.00
                                0.00      0.00      0.00
                                0.00      0.00      0.00

     DFT-D   stress (kbar)     -4.29      0.00     -0.00
                                0.00     -4.29     -0.00
                               -0.00     -0.00     -3.53

     XDM     stress (kbar)      0.00      0.00      0.00
                                0.00      0.00      0.00
                                0.00      0.00      0.00

     dft-nl  stress (kbar)      0.00      0.00      0.00
                                0.00      0.00      0.00
                                0.00      0.00      0.00

     TS-vdW  stress (kbar)      0.00      0.00      0.00
                                0.00      0.00      0.00
                                0.00      0.00      0.00

     MDB     stress (kbar)      0.00      0.00      0.00
                                0.00      0.00      0.00
                                0.00      0.00      0.00

     3D-RISM stress (kbar)      0.00      0.00      0.00
                                0.00      0.00      0.00
                                0.00      0.00      0.00

     Damped Dynamics: convergence achieved in  36 steps

     End of damped dynamics calculation

     Final energy =   -1118.2280523089 Ry

Begin final coordinates
     new unit-cell volume =   9490.83920 a.u.^3 (  1406.39727 Ang^3 )
     density =      2.16766 g/cm^3

CELL_PARAMETERS (angstrom)
   6.138027874   3.543792045   0.000000000
  -6.138027874   3.543792045   0.000000000
   0.000000000   0.000000000  32.328156026

ATOMIC_POSITIONS (crystal)
Nb               0.1350744960       -0.1350744960       -0.1018333876
Nb               0.1350744960        0.2701489919       -0.1018333876
Nb              -0.2701489919       -0.1350744960       -0.1018333876
Nb              -0.1350744960        0.1350744960        0.1018333876
Nb              -0.1350744960       -0.2701489919        0.1018333876
Nb               0.2701489919        0.1350744960        0.1018333876
Br              -0.0000000000       -0.0000000000       -0.1633898367
Br              -0.4977941624        0.4977941624       -0.1467068755
Br              -0.4977941624        0.0044116751       -0.1467068755
Br              -0.0044116751        0.4977941624       -0.1467068755
Br               0.3333333333       -0.3333333333       -0.0577541486
Br              -0.1664356666        0.1664356666       -0.0476000346
Br              -0.1664356666       -0.3328713331       -0.0476000346
Br               0.3328713331        0.1664356666       -0.0476000346
Br               0.1664356666       -0.1664356666        0.0476000346
Br               0.1664356666        0.3328713331        0.0476000346
Br              -0.3328713331       -0.1664356666        0.0476000346
Br              -0.3333333333        0.3333333333        0.0577541486
Br               0.4977941624       -0.4977941624        0.1467068755
Br               0.4977941624       -0.0044116751        0.1467068755
Br               0.0044116751       -0.4977941624        0.1467068755
Br              -0.0000000000       -0.0000000000        0.1633898367
End final coordinates

     Writing all to output data dir ./out/Nb3Br8.save/ :
     XML data file, charge density, pseudopotentials, collected wavefunctions

     General routines

     Parallel routines

   This run was terminated on:  13: 3:13   7May2025

   JOB DONE.