     Program PWSCF v.7.3.1 starts on  7May2025 at 22: 6: 3

     Waiting for input...
     Reading input from standard input
Warning: card &CELL ignored
Warning: card / ignored
Warning: card &FCP ignored
Warning: card / ignored
Warning: card &RISM ignored
Warning: card / ignored

     Current dimensions of program PWSCF are:
     Max number of different atomic species (ntypx) = 10
     Max number of k-points (npk) =  40000
     Max angular momentum in pseudopotentials (lmaxx) =  4

     IMPORTANT: XC functional enforced from input :
     Exchange-correlation= PBE
                           (   1   4   3   4   0   0   0)
     Any further DFT definition will be discarded
     Please, verify this is what you really want

     Message from routine setup:
     using ibrav=0 with symmetry is DISCOURAGED, use correct ibrav instead
     Message from routine setup:
     Dynamics, you should have no symmetries

     K-points division:     npool     =      16
     R & G space division:  proc/nbgrp/npool/nimage =      24
     Subspace diagonalization in iterative solution of the eigenvalue problem:
     a serial algorithm will be used

     Message from routine divide_et_impera:
     suboptimal parallelization: some nodes have no k-points

     Using Slab Decomposition

     bravais-lattice index     =            0
     lattice parameter (alat)  =      13.3936  a.u.
     unit-cell volume          =    9490.8392 (a.u.)^3
     number of atoms/cell      =           11
     number of atomic types    =            2
     number of electrons       =        95.00
     number of Kohn-Sham states=           58
     kinetic-energy cutoff     =     100.0000  Ry
     charge density cutoff     =     400.0000  Ry
     scf convergence threshold =      1.0E-12
     mixing beta               =       0.7000
     number of iterations used =            8  plain     mixing
     energy convergence thresh.=      1.0E-04
     force convergence thresh. =      1.0E-06
     Exchange-correlation= PBE
                           (   1   4   3   4   0   0   0)
     nstep                     =           50

     celldm(1)=  13.393593  celldm(2)=   0.000000  celldm(3)=   0.000000
     celldm(4)=   0.000000  celldm(5)=   0.000000  celldm(6)=   0.000000

     crystal axes: (cart. coord. in units of alat)
               a(1) = (   0.866025   0.500000   0.000000 )
               a(2) = (  -0.866025   0.500000   0.000000 )
               a(3) = (   0.000000   0.000000   4.561238 )

     reciprocal axes: (cart. coord. in units 2 pi/alat)
               b(1) = (  0.577350  1.000000 -0.000000 )
               b(2) = ( -0.577350  1.000000  0.000000 )
               b(3) = (  0.000000 -0.000000  0.219239 )

     PseudoPot. # 1 for Nb read from file:
     /scratch-shared/mroesner/Nb3X8_cDFPT/pp/Nb_ONCV_PBE-1.2.upf
     MD5 check sum: 2c750ac0b6910ff4cf0ab5f6c4124a64
     Pseudo is Norm-conserving, Zval = 13.0
     Generated using ONCVPSP code by D. R. Hamann
     Using radial grid of  602 points,  6 beta functions with:
                l(1) =   0
                l(2) =   0
                l(3) =   1
                l(4) =   1
                l(5) =   2
                l(6) =   2

     PseudoPot. # 2 for Br read from file:
     /scratch-shared/mroesner/Nb3X8_cDFPT/pp/Br_ONCV_PBE-1.2.upf
     MD5 check sum: 5b50323dbf1c0ae0ed9e7f1e72c3f86c
     Pseudo is Norm-conserving, Zval =  7.0
     Generated using ONCVPSP code by D. R. Hamann
     Using radial grid of  602 points,  6 beta functions with:
                l(1) =   0
                l(2) =   0
                l(3) =   1
                l(4) =   1
                l(5) =   2
                l(6) =   2

     atomic species   valence    mass     pseudopotential
     Nb               13.00    92.90637     Nb( 1.00)
     Br                7.00    79.90400     Br( 1.00)

      6 Sym. Ops. (no inversion) found

                                    s                        frac. trans.

      isym =  1     identity

 cryst.   s( 1) = (     1          0          0      )
                  (     0          1          0      )
                  (     0          0          1      )

 cart.    s( 1) = (  1.0000000 -0.0000000  0.0000000 )
                  (  0.0000000  1.0000000  0.0000000 )
                  (  0.0000000  0.0000000  1.0000000 )

      isym =  2     120 deg rotation - cryst. axis [0,0,1]

[...]

      isym =  3     120 deg rotation - cryst. axis [0,0,-1]

[...]

      isym =  4     inv. 180 deg rotation - cart. axis [0,1,0]

[...]

      isym =  5     inv. 180 deg rotation - cryst. axis [1,-1,0]

[...]

      isym =  6     inv. 180 deg rotation - cryst. axis [2,1,0]

 cryst.   s( 6) = (    -1          0          0      )
                  (     1          1          0      )
                  (     0          0          1      )

 cart.    s( 6) = ( -0.5000000 -0.8660254  0.0000000 )
                  ( -0.8660254  0.5000000  0.0000000 )
                  (  0.0000000  0.0000000  1.0000000 )

   Cartesian axes

     site n.     atom                  positions (alat units)
         1        Nb     tau(   1) = (   0.2339559  -0.0000000  -0.4644863  )
         2        Nb     tau(   2) = (  -0.1169779   0.2026117  -0.4644863  )
         3        Nb     tau(   3) = (  -0.1169779  -0.2026117  -0.4644863  )
         4        Br     tau(   4) = (   0.0000000  -0.0000000  -0.7452599  )
         5        Br     tau(   5) = (  -0.8622048  -0.0000000  -0.6691649  )
         6        Br     tau(   6) = (  -0.4349230  -0.2466912  -0.6691649  )
         7        Br     tau(   7) = (  -0.4349230   0.2466912  -0.6691649  )
         8        Br     tau(   8) = (   0.5773503  -0.0000000  -0.2634304  )
         9        Br     tau(   9) = (  -0.2882750   0.0000000  -0.2171151  )
        10        Br     tau(  10) = (   0.1441375  -0.2496535  -0.2171151  )
        11        Br     tau(  11) = (   0.1441375   0.2496535  -0.2171151  )

     DFT-D3 Dispersion Correction (no 3-body):
       Reference C6 values for interpolation:

         atom   Coordination number   C6
         Br         0.000           334.26
         Br         0.997           338.48
         Nb         0.000          2950.50
         Nb         1.954          1161.16
         Nb         2.922           857.79

       Values used:

         atom   Coordination number  R0_AB[au]  C6      C8
         Nb         8.069            3.647    857.79 111659.18
         Nb         8.069            3.647    857.79 111659.18
         Nb         8.069            3.647    857.79 111659.18
         Br         3.486            3.181    338.47  21401.43
         Br         2.741            3.181    338.47  21401.43
         Br         2.741            3.181    338.47  21401.43
         Br         2.741            3.181    338.47  21401.43
         Br         3.626            3.181    338.47  21401.43
         Br         2.687            3.181    338.47  21401.43
         Br         2.687            3.181    338.47  21401.43
         Br         2.687            3.181    338.47  21401.43

         Molecular C6 ( Ry / a.u.^6 ) =     54845.00

   Crystallographic axes

     site n.     atom                  positions (cryst. coord.)
         1        Nb     tau(   1) = (  0.1350745 -0.1350745 -0.1018334  )
         2        Nb     tau(   2) = (  0.1350745  0.2701490 -0.1018334  )
         3        Nb     tau(   3) = ( -0.2701490 -0.1350745 -0.1018334  )
         4        Br     tau(   4) = (  0.0000000 -0.0000000 -0.1633898  )
         5        Br     tau(   5) = ( -0.4977942  0.4977942 -0.1467069  )
         6        Br     tau(   6) = ( -0.4977942  0.0044117 -0.1467069  )
         7        Br     tau(   7) = ( -0.0044117  0.4977942 -0.1467069  )
         8        Br     tau(   8) = (  0.3333333 -0.3333333 -0.0577541  )
         9        Br     tau(   9) = ( -0.1664357  0.1664357 -0.0476000  )
        10        Br     tau(  10) = ( -0.1664357 -0.3328713 -0.0476000  )
        11        Br     tau(  11) = (  0.3328713  0.1664357 -0.0476000  )

     number of k points=     7  Marzari-Vanderbilt smearing, width (Ry)=  0.0037
                       cart. coord. in units 2pi/alat
        k(    1) = (   0.0000000   0.0000000   0.0000000), wk =   0.0555556
        k(    2) = (  -0.0962250   0.1666667   0.0000000), wk =   0.3333333
        k(    3) = (  -0.1924501   0.3333333   0.0000000), wk =   0.3333333
        k(    4) = (   0.2886751  -0.5000000   0.0000000), wk =   0.1666667
        k(    5) = (  -0.0000000   0.3333333   0.0000000), wk =   0.3333333
        k(    6) = (  -0.0962250   0.5000000   0.0000000), wk =   0.6666667
        k(    7) = (  -0.0000000   0.6666667   0.0000000), wk =   0.1111111

                       cryst. coord.
        k(    1) = (   0.0000000   0.0000000   0.0000000), wk =   0.0555556
        k(    2) = (  -0.0000000   0.1666667   0.0000000), wk =   0.3333333
        k(    3) = (  -0.0000000   0.3333333   0.0000000), wk =   0.3333333
        k(    4) = (   0.0000000  -0.5000000   0.0000000), wk =   0.1666667
        k(    5) = (   0.1666667   0.1666667   0.0000000), wk =   0.3333333
        k(    6) = (   0.1666667   0.3333333   0.0000000), wk =   0.6666667
        k(    7) = (   0.3333333   0.3333333   0.0000000), wk =   0.1111111

     Initial potential from superposition of free atoms

     starting charge      94.5747, renormalised to      95.0000

     negative rho (up, down):  1.656E-03 0.000E+00
     Starting wfcs are random

     Self-consistent Calculation

     iteration #  1     ecut=   100.00 Ry     beta= 0.70
     Davidson diagonalization with overlap

     c_bands:  2 eigenvalues not converged
     ethr =  1.00E-02,  avg # of iterations = 19.6

     Threshold (ethr) on eigenvalues was too large:
     Diagonalizing with lowered threshold

     Davidson diagonalization with overlap

     ethr =  4.50E-04,  avg # of iterations = 19.1

     negative rho (up, down):  1.609E-04 0.000E+00

     total energy              =    -558.94568555 Ry
     estimated scf accuracy    <       0.31848950 Ry

[...]

     End of self-consistent calculation

          k = 0.0000 0.0000 0.0000 (160347 PWs)   bands (ev):

   -57.8225 -57.7464 -57.7464 -34.1731 -34.0114 -34.0114 -34.0113 -33.9155
   -33.9155 -33.6997 -33.5453 -33.5453 -18.9541 -18.4451 -17.8714 -17.8598
   -17.8598 -17.6418 -17.2846 -17.2846  -8.4761  -8.4761  -8.1462  -7.9391
    -7.5785  -7.5785  -7.3564  -7.2857  -6.8585  -6.8585  -6.2003  -5.9861
    -5.9861  -5.7726  -5.6967  -5.6967  -5.3494  -5.3494  -5.3057  -5.1908
    -4.5820  -4.5820  -3.9081  -3.9081  -3.5738  -2.9984  -2.9984  -1.9352
    -1.0555  -1.0555  -0.4226  -0.2365  -0.2365   0.1794   0.2153   0.2153
     0.4251   0.4251

     occupation numbers
     1.0000   1.0000   1.0000   1.0000   1.0000   1.0000   1.0000   1.0000
     1.0000   1.0000   1.0000   1.0000   1.0000   1.0000   1.0000   1.0000
     1.0000   1.0000   1.0000   1.0000   1.0000   1.0000   1.0000   1.0000
     1.0000   1.0000   1.0000   1.0000   1.0000   1.0000   1.0000   1.0000
     1.0000   1.0000   1.0000   1.0000   1.0000   1.0000   1.0000   1.0000
     1.0000   1.0000   1.0000   1.0000   1.0000   1.0000   1.0000   0.2449
[...]
                                0.00      0.00      0.00

     MDB     stress (kbar)      0.00      0.00      0.00
                                0.00      0.00      0.00
                                0.00      0.00      0.00

     3D-RISM stress (kbar)      0.00      0.00      0.00
                                0.00      0.00      0.00
                                0.00      0.00      0.00

     Damped Dynamics Calculation

     Entering Dynamics:    iteration =     1

ATOMIC_POSITIONS (crystal)
Nb               0.1351458496       -0.1351458496       -0.1018784473
Nb               0.1351458496        0.2702916991       -0.1018784473
Nb              -0.2702916991       -0.1351458496       -0.1018784473
Br              -0.0000000000       -0.0000000000       -0.1633950206
Br              -0.4977837902        0.4977837902       -0.1466972402
Br              -0.4977837902        0.0044324196       -0.1466972402
Br              -0.0044324196        0.4977837902       -0.1466972402
Br               0.3333333333       -0.3333333333       -0.0577546251
Br              -0.1664508449        0.1664508449       -0.0475627235
Br              -0.1664508449       -0.3329016897       -0.0475627235
Br               0.3329016897        0.1664508449       -0.0475627235

     Writing config-only to output data dir ./out/Nb3Br8.save/ :
     XML data file
     NEW-OLD atomic charge density approx. for the potential

[...]

     c_bands:  1 eigenvalues not converged
     ethr =  5.06E-10,  avg # of iterations = 16.1

[...]

     <vel(dt)|acc(dt)> =   0.98450519

[...]

     Writing config-only to output data dir ./out/Nb3Br8.save/ :
     XML data file

     first order wave-functions extrapolation
     NEW-OLD atomic charge density approx. for the potential

[...]

     second order wave-functions extrapolation
     NEW-OLD atomic charge density approx. for the potential

[...]

     DFT-D3 dispersion Force =     0.004942

[...]

     DFT-D3 dispersion Force =     0.004942
     SCF correction compared to forces is large: reduce conv_thr to get better values

[...]

     negative rho (up, down):  1.291E-08 0.000E+00

[...]

     Entering Dynamics:    iteration =    23

     <vel(dt)|acc(dt)> =   0.69058153

ATOMIC_POSITIONS (crystal)
Nb               0.1353259998       -0.1353259998       -0.1021291209
Nb               0.1353259998        0.2706519995       -0.1021291209
Nb              -0.2706519995       -0.1353259998       -0.1021291209
Br               0.0000000000       -0.0000000000       -0.1637010101
Br              -0.4972308409        0.4972308409       -0.1465882231
Br              -0.4972308409        0.0055383181       -0.1465882231
Br              -0.0055383181        0.4972308409       -0.1465882231
Br               0.3333333333       -0.3333333333       -0.0580334954
Br              -0.1655754153        0.1655754153       -0.0472261136
Br              -0.1655754153       -0.3311508304       -0.0472261136
Br               0.3311508304        0.1655754153       -0.0472261136

     Writing config-only to output data dir ./out/Nb3Br8.save/ :
     XML data file

     second order wave-functions extrapolation
     NEW-OLD atomic charge density approx. for the potential

     Self-consistent Calculation

[...]

     Threshold (ethr) on eigenvalues was too large:
     Diagonalizing with lowered threshold

     Davidson diagonalization with overlap

[...]

     total energy              =    -559.07923810 Ry
     estimated scf accuracy    <          6.8E-11 Ry

     iteration #  3     ecut=   100.00 Ry     beta= 0.70
     Davidson diagonalization with overlap

     ethr =  1.00E-13,  avg # of iterations =  2.0

     End of self-consistent calculation

[...]

          k = 0.2887-0.5000 0.0000 (160226 PWs)   bands (ev):

[...]

          k =-0.0000 0.6667 0.0000 (160113 PWs)   bands (ev):

   -57.8274 -57.7541 -57.7535 -34.1601 -34.0100 -34.0049 -34.0033 -33.9233
   -33.9225 -33.7110 -33.5712 -33.5612 -18.8813 -18.1541 -18.0671 -18.0095
   -17.7431 -17.5818 -17.4901 -17.3037  -8.0815  -7.7641  -7.7387  -7.6083
    -7.3646  -7.1543  -7.0815  -7.0435  -6.7787  -6.7155  -6.7111  -6.4850
    -6.3692  -6.2804  -6.2785  -5.7231  -5.6553  -5.4837  -5.3897  -5.2727
    -4.9220  -4.8347  -4.7054  -4.4566  -3.6991  -3.0604  -2.9609  -1.9372
    -1.1682  -0.7964  -0.4739  -0.3818  -0.3665  -0.3396  -0.2474   0.1843
     0.5426   0.5725

     occupation numbers
     1.0000   1.0000   1.0000   1.0000   1.0000   1.0000   1.0000   1.0000
     1.0000   1.0000   1.0000   1.0000   1.0000   1.0000   1.0000   1.0000
     1.0000   1.0000   1.0000   1.0000   1.0000   1.0000   1.0000   1.0000
     1.0000   1.0000   1.0000   1.0000   1.0000   1.0000   1.0000   1.0000
     1.0000   1.0000   1.0000   1.0000   1.0000   1.0000   1.0000   1.0000
     1.0000   1.0000   1.0000   1.0000   1.0000   1.0000   1.0000   0.1477
     0.0000   0.0000   0.0000   0.0000   0.0000   0.0000   0.0000   0.0000
     0.0000   0.0000

     the Fermi energy is    -1.9607 ev

!    total energy              =    -559.07923810 Ry
     estimated scf accuracy    <          9.7E-13 Ry
     smearing contrib. (-TS)   =      -0.00071690 Ry
     internal energy E=F+TS    =    -559.07852120 Ry

     convergence has been achieved in   3 iterations

     Forces acting on atoms (cartesian axes, Ry/au):

     atom    1 type  1   force =    -0.00000008   -0.00000000   -0.00000021
     atom    2 type  1   force =     0.00000004   -0.00000007   -0.00000021
     atom    3 type  1   force =     0.00000004    0.00000007   -0.00000021
     atom    4 type  2   force =     0.00000000    0.00000000   -0.00000026
     atom    5 type  2   force =     0.00000083   -0.00000000    0.00000056
     atom    6 type  2   force =    -0.00000042    0.00000072    0.00000056
     atom    7 type  2   force =    -0.00000042   -0.00000072    0.00000056
     atom    8 type  2   force =    -0.00000000    0.00000000    0.00000074
     atom    9 type  2   force =    -0.00000027   -0.00000000   -0.00000051
     atom   10 type  2   force =     0.00000014   -0.00000024   -0.00000051
     atom   11 type  2   force =     0.00000014    0.00000024   -0.00000051
     The non-local contrib.  to forces
     atom    1 type  1   force =    -0.20538939   -0.00000000   -0.03707242
     atom    2 type  1   force =     0.10269470   -0.17787243   -0.03707242
     atom    3 type  1   force =     0.10269470    0.17787243   -0.03707242
     atom    4 type  2   force =     0.00000000    0.00000000    0.23114605
     atom    5 type  2   force =    -0.08890524   -0.00000000    0.13738197
     atom    6 type  2   force =     0.04445262   -0.07699419    0.13738197
     atom    7 type  2   force =     0.04445262    0.07699419    0.13738197
     atom    8 type  2   force =     0.00000000    0.00000000   -0.15905285
     atom    9 type  2   force =     0.10790584    0.00000000   -0.16028362
     atom   10 type  2   force =    -0.05395292    0.09344920   -0.16028362
     atom   11 type  2   force =    -0.05395292   -0.09344920   -0.16028362
     The ionic contribution  to forces
     atom    1 type  1   force =     9.45401642   -0.00000000   -1.10996608
     atom    2 type  1   force =    -4.72700821    8.18741838   -1.10996608
     atom    3 type  1   force =    -4.72700821   -8.18741838   -1.10996608
     atom    4 type  2   force =     0.00000000   -0.00000000  -39.06654366
     atom    5 type  2   force =     2.92935145    0.00000000  -26.60565362
     atom    6 type  2   force =    -1.46467573    2.53689277  -26.60565362
     atom    7 type  2   force =    -1.46467573   -2.53689277  -26.60565362
     atom    8 type  2   force =     0.00000000    0.00000000   26.48300410
     atom    9 type  2   force =    -5.77850959   -0.00000000   31.91013289
     atom   10 type  2   force =     2.88925480   -5.00433610   31.91013290
     atom   11 type  2   force =     2.88925480    5.00433610   31.91013290
     The local contribution  to forces
     atom    1 type  1   force =    -9.24700799   -0.00000000    1.14698326
     atom    2 type  1   force =     4.62350393   -8.00814379    1.14698326
     atom    3 type  1   force =     4.62350393    8.00814379    1.14698326
     atom    4 type  2   force =    -0.00000000    0.00000000   38.83434346
     atom    5 type  2   force =    -2.84117946    0.00000000   26.46718477
     atom    6 type  2   force =     1.42058973   -2.46053359   26.46718477
     atom    7 type  2   force =     1.42058973    2.46053359   26.46718477
     atom    8 type  2   force =     0.00000000   -0.00000000  -26.32455809
     atom    9 type  2   force =     5.67126381    0.00000000  -31.74815589
     atom   10 type  2   force =    -2.83563190    4.91145853  -31.74815589
     atom   11 type  2   force =    -2.83563190   -4.91145853  -31.74815589
     The core correction contribution to forces
     atom    1 type  1   force =     0.00000000    0.00000000    0.00000000
     atom    2 type  1   force =     0.00000000    0.00000000    0.00000000
     atom    3 type  1   force =     0.00000000    0.00000000    0.00000000
     atom    4 type  2   force =     0.00000000    0.00000000    0.00000000
     atom    5 type  2   force =     0.00000000    0.00000000    0.00000000
     atom    6 type  2   force =     0.00000000    0.00000000    0.00000000
     atom    7 type  2   force =     0.00000000    0.00000000    0.00000000
     atom    8 type  2   force =     0.00000000    0.00000000    0.00000000
     atom    9 type  2   force =     0.00000000    0.00000000    0.00000000
     atom   10 type  2   force =     0.00000000    0.00000000    0.00000000
     atom   11 type  2   force =     0.00000000    0.00000000    0.00000000
     The Hubbard contrib.    to forces
     atom    1 type  1   force =     0.00000000    0.00000000    0.00000000
     atom    2 type  1   force =     0.00000000    0.00000000    0.00000000
     atom    3 type  1   force =     0.00000000    0.00000000    0.00000000
     atom    4 type  2   force =     0.00000000    0.00000000    0.00000000
     atom    5 type  2   force =     0.00000000    0.00000000    0.00000000
     atom    6 type  2   force =     0.00000000    0.00000000    0.00000000
     atom    7 type  2   force =     0.00000000    0.00000000    0.00000000
     atom    8 type  2   force =     0.00000000    0.00000000    0.00000000
     atom    9 type  2   force =     0.00000000    0.00000000    0.00000000
     atom   10 type  2   force =     0.00000000    0.00000000    0.00000000
     atom   11 type  2   force =     0.00000000    0.00000000    0.00000000
     The SCF correction term to forces
     atom    1 type  1   force =    -0.00000055    0.00000000    0.00000247
     atom    2 type  1   force =     0.00000027   -0.00000047    0.00000247
     atom    3 type  1   force =     0.00000027    0.00000047    0.00000247
     atom    4 type  2   force =     0.00000000   -0.00000000    0.00000094
     atom    5 type  2   force =    -0.00000006    0.00000000    0.00000120
     atom    6 type  2   force =     0.00000003   -0.00000005    0.00000120
     atom    7 type  2   force =     0.00000003    0.00000005    0.00000120
     atom    8 type  2   force =    -0.00000000   -0.00000000    0.00000073
     atom    9 type  2   force =     0.00000036    0.00000000    0.00000019
     atom   10 type  2   force =    -0.00000018    0.00000031    0.00000019
     atom   11 type  2   force =    -0.00000018   -0.00000031    0.00000019

     DFT-D3 dispersion contribution to forces:
     atom    1 type  1   force =    -0.00161861    0.00000000    0.00005312
     atom    2 type  1   force =     0.00080931   -0.00140176    0.00005312
     atom    3 type  1   force =     0.00080931    0.00140176    0.00005312
     atom    4 type  2   force =     0.00000000   -0.00000000    0.00105349
     atom    5 type  2   force =     0.00073414    0.00000000    0.00108680
     atom    6 type  2   force =    -0.00036707    0.00063578    0.00108680
     atom    7 type  2   force =    -0.00036707   -0.00063578    0.00108680
     atom    8 type  2   force =    -0.00000000    0.00000000    0.00060739
     atom    9 type  2   force =    -0.00066070   -0.00000000   -0.00169354
     atom   10 type  2   force =     0.00033035   -0.00057218   -0.00169354
     atom   11 type  2   force =     0.00033035    0.00057218   -0.00169354

     Total force =     0.000002     Total SCF correction =     0.000005

     DFT-D3 dispersion Force =     0.004942
     SCF correction compared to forces is large: reduce conv_thr to get better values

     Computing stress (Cartesian axis) and pressure

          total   stress  (Ry/bohr**3)                   (kbar)     P=        0.53
   0.00000558   0.00000000   0.00000000            0.82        0.00        0.00
  -0.00000000   0.00000558   0.00000000           -0.00        0.82        0.00
   0.00000000   0.00000000  -0.00000026            0.00        0.00       -0.04

     kinetic stress (kbar)   1817.53      0.00      0.00
                                0.00   1817.53      0.00
                                0.00      0.00   1795.29

     local   stress (kbar) -84827.91     -0.00     -0.00
                               -0.00 -84827.91     -0.00
                               -0.00     -0.00  83297.18

     nonloc. stress (kbar)    965.37     -0.00     -0.00
                               -0.00    965.37     -0.00
                               -0.00     -0.00    969.64

     hartree stress (kbar)  42040.25     -0.00      0.00
                               -0.00  42040.25      0.00
                                0.00      0.00 -40830.27

     exc-cor stress (kbar)   -400.60     -0.00     -0.00
                               -0.00   -400.60      0.00
                               -0.00      0.00   -401.70

     corecor stress (kbar)      0.00      0.00      0.00
                                0.00      0.00      0.00
                                0.00      0.00      0.00

     ewald   stress (kbar)  40407.87      0.00      0.00
                                0.00  40407.87     -0.00
                                0.00     -0.00 -44829.74

     hubbard stress (kbar)      0.00      0.00      0.00
                                0.00      0.00      0.00
                                0.00      0.00      0.00

     DFT-D   stress (kbar)     -1.68     -0.00     -0.00
                               -0.00     -1.68      0.00
                               -0.00      0.00     -0.44

     XDM     stress (kbar)      0.00      0.00      0.00
                                0.00      0.00      0.00
                                0.00      0.00      0.00

     dft-nl  stress (kbar)      0.00      0.00      0.00
                                0.00      0.00      0.00
                                0.00      0.00      0.00

     TS-vdW  stress (kbar)      0.00      0.00      0.00
                                0.00      0.00      0.00
                                0.00      0.00      0.00

     MDB     stress (kbar)      0.00      0.00      0.00
                                0.00      0.00      0.00
                                0.00      0.00      0.00

     3D-RISM stress (kbar)      0.00      0.00      0.00
                                0.00      0.00      0.00
                                0.00      0.00      0.00

     Damped Dynamics: convergence achieved in  23 steps

     End of damped dynamics calculation

     Final energy =    -559.0792380969 Ry

Begin final coordinates
     new unit-cell volume =   9490.83920 a.u.^3 (  1406.39727 Ang^3 )
     density =      1.08383 g/cm^3

CELL_PARAMETERS (angstrom)
   6.138027874   3.543792045   0.000000000
  -6.138027874   3.543792045   0.000000000
   0.000000000   0.000000000  32.328156026

ATOMIC_POSITIONS (crystal)
Nb               0.1353259998       -0.1353259998       -0.1021291209
Nb               0.1353259998        0.2706519995       -0.1021291209
Nb              -0.2706519995       -0.1353259998       -0.1021291209
Br               0.0000000000       -0.0000000000       -0.1637010101
Br              -0.4972308409        0.4972308409       -0.1465882231
Br              -0.4972308409        0.0055383181       -0.1465882231
Br              -0.0055383181        0.4972308409       -0.1465882231
Br               0.3333333333       -0.3333333333       -0.0580334954
Br              -0.1655754153        0.1655754153       -0.0472261136
Br              -0.1655754153       -0.3311508304       -0.0472261136
Br               0.3311508304        0.1655754153       -0.0472261136
End final coordinates

     Writing all to output data dir ./out/Nb3Br8.save/ :
     XML data file, charge density, pseudopotentials, collected wavefunctions

     General routines

     Parallel routines

   This run was terminated on:  22:17:14   7May2025

   JOB DONE.