     Program PHONON v.7.3.1 starts on  7May2025 at 20:50:49

     Waiting for input...
     Reading input from standard input
     Run is not recoverable starting from scratch

     Reading xml data from directory:

     ./out/Nb3F8.save/

     K-points division:     npool     =      12
     R & G space division:  proc/nbgrp/npool/nimage =      32
     Subspace diagonalization in iterative solution of the eigenvalue problem:
     a serial algorithm will be used

     IMPORTANT: XC functional enforced from input :
     Exchange-correlation= PBE
                           (   1   4   3   4   0   0   0)
     Any further DFT definition will be discarded
     Please, verify this is what you really want

     Using Slab Decomposition

     Message from routine divide_et_impera:
     suboptimal parallelization: some nodes have no k-points
     Reading collected, re-writing distributed wavefunctions in ./out/

     Dynamical matrices for ( 2, 2, 1)  uniform grid of q-points
     (   2 q-points):
       N         xq(1)         xq(2)         xq(3)
       1   0.000000000   0.000000000   0.000000000
       2   0.288675135  -0.500000000   0.000000000

     Number and degeneracy of irreps per q-point
       N         xq(1)         xq(2)         xq(3)   N irreps
       1   0.000000000   0.000000000   0.000000000      44
        1   1   1   1   1   1   1   1   1   1   1   2   2   2   2   2   2   2
   2   2   2   2   1   1   1   1   1   1   1   1   1   1   1   2   2   2
   2   2   2   2   2   2   2   2
Eigenvectors exchange needed   16   32
       2   0.288675135  -0.500000000   0.000000000      65
        1   1   1   1   1   1   1   1   1   1   1   1   1   1   1   2   1   1
   1   1   1   1   1   1   1   1   1   1   1   1   1   1   1   1   1   1
   1   1   1   1   1   1   1   1   1   1   1   1   1   1   1   1   1   1
   1   1   1   1   1   1   1   1   1   1   1

     Saving dvscf to file. Distribute only q points, not irreducible representations.

     Calculation of q =    0.0000000   0.0000000   0.0000000

     Nb3F8

     bravais-lattice index     =            0
     lattice parameter (alat)  =      11.1557  a.u.
     unit-cell volume          =    4949.5834 (a.u.)^3
     number of atoms/cell      =           22
     number of atomic types    =            2
     kinetic-energy cut-off    =     100.0000  Ry
     charge density cut-off    =     400.0000  Ry
     convergence threshold     =      1.0E-16
     beta                      =       0.7000
     number of iterations used =            4
     Exchange-correlation= PBE
                           (   1   4   3   4   0   0   0)

     celldm(1)=   11.15573  celldm(2)=    0.00000  celldm(3)=    0.00000
     celldm(4)=    0.00000  celldm(5)=    0.00000  celldm(6)=    0.00000

     crystal axes: (cart. coord. in units of alat)
               a(1) = (  0.8660  0.5000  0.0000 )
               a(2) = ( -0.8660  0.5000  0.0000 )
               a(3) = (  0.0000  0.0000  4.1166 )

     reciprocal axes: (cart. coord. in units 2 pi/alat)
               b(1) = (  0.5774  1.0000 -0.0000 )
               b(2) = ( -0.5774  1.0000  0.0000 )
               b(3) = (  0.0000 -0.0000  0.2429 )

     Atoms inside the unit cell:

     Cartesian axes

     site n.  atom      mass           positions (alat units)
        1  Nb     92.9064   tau(    1) = (    0.25223   -0.00000   -0.42768  )
        2  Nb     92.9064   tau(    2) = (   -0.12611    0.21843   -0.42768  )
        3  Nb     92.9064   tau(    3) = (   -0.12611   -0.21843   -0.42768  )
        4  Nb     92.9064   tau(    4) = (   -0.25223    0.00000    0.42768  )
        5  Nb     92.9064   tau(    5) = (    0.12611   -0.21843    0.42768  )
        6  Nb     92.9064   tau(    6) = (    0.12611    0.21843    0.42768  )
        7  F      18.9984   tau(    7) = (    0.00000    0.00000   -0.69400  )
        8  F      18.9984   tau(    8) = (    0.85400    0.00000   -0.61450  )
        9  F      18.9984   tau(    9) = (    0.43902    0.23959   -0.61450  )
       10  F      18.9984   tau(   10) = (    0.43902   -0.23959   -0.61450  )
       11  F      18.9984   tau(   11) = (    0.57735   -0.00000   -0.23553  )
       12  F      18.9984   tau(   12) = (   -0.28031   -0.00000   -0.20031  )
       13  F      18.9984   tau(   13) = (    0.14016   -0.24276   -0.20031  )
       14  F      18.9984   tau(   14) = (    0.14016    0.24276   -0.20031  )
       15  F      18.9984   tau(   15) = (    0.28031    0.00000    0.20031  )
       16  F      18.9984   tau(   16) = (   -0.14016    0.24276    0.20031  )
       17  F      18.9984   tau(   17) = (   -0.14016   -0.24276    0.20031  )
       18  F      18.9984   tau(   18) = (   -0.57735    0.00000    0.23553  )
       19  F      18.9984   tau(   19) = (   -0.85400   -0.00000    0.61450  )
       20  F      18.9984   tau(   20) = (   -0.43902   -0.23959    0.61450  )
       21  F      18.9984   tau(   21) = (   -0.43902    0.23959    0.61450  )
       22  F      18.9984   tau(   22) = (    0.00000    0.00000    0.69400  )

     Computing dynamical matrix for
                    q = (   0.0000000   0.0000000   0.0000000 )

     13 Sym.Ops. (with q -> -q+G )

     G cutoff = 1260.9456  (  20905 G-vectors)     FFT grid: ( 72, 72,300)

     number of k points=     7  Gaussian smearing, width (Ry)=  0.0037

     PseudoPot. # 1 for Nb read from file:
     /scratch-shared/mroesner/Nb3X8_cDFPT/pp/Nb_ONCV_PBE-1.2.upf
     MD5 check sum: 2c750ac0b6910ff4cf0ab5f6c4124a64
     Pseudo is Norm-conserving, Zval = 13.0
     Generated using ONCVPSP code by D. R. Hamann
     Using radial grid of  602 points,  6 beta functions with:
                l(1) =   0
                l(2) =   0
                l(3) =   1
                l(4) =   1
                l(5) =   2
                l(6) =   2

     PseudoPot. # 2 for F  read from file:
     /scratch-shared/mroesner/Nb3X8_cDFPT/pp/F_ONCV_PBE-1.2.upf
     MD5 check sum: 1d8275f47d602dd53cad6bcdc0eda7dc
     Pseudo is Norm-conserving, Zval =  7.0
     Generated using ONCVPSP code by D. R. Hamann
     Using radial grid of  602 points,  4 beta functions with:
                l(1) =   0
                l(2) =   0
                l(3) =   1
                l(4) =   1

     Mode symmetry, D_3d (-3m)  point group:

     Atomic displacements:
     There are   44 irreducible representations

     Representation     1      1 modes -  To be done

[...]

     Alpha used in Ewald sum =   2.8000

     Reading Grimme-D3 Hessian from file: ./out/Nb3F8.hess

     Number of cells replicated along each semiaxis:   10  10   3
     Number of cells in the supercell:      3087
     Number of atoms in the supercell:     67914
     Hessian allocation dimension:  13446972

     Grimme-D3 Hessian read

     Computing dynamical matrix for q:     0.000000    0.000000    0.000000

     Writing Hessian on file dynamical.false.dat

     Dynamical matrix computed

     Representation #   1 mode #   1

     Self-consistent Calculation

     Pert. #  1: Fermi energy shift (Ry) =    -4.6455E-01     2.0195E-28

      thresh= 1.000E-02 alpha_mix =  0.700 |ddv_scf|^2 =  2.876E-07

[...]

     End of self-consistent calculation

     Convergence has been achieved

[...]

     Representation #  12 modes #  12  13

[...]

     Pert. #  1: Fermi energy shift (Ry) =     1.3463E-27    -2.3915E-43
     Pert. #  2: Fermi energy shift (Ry) =    -1.3463E-28     8.9683E-44

[...]

     Number of q in the star =    1
     List of q in the star:
          1   0.000000000   0.000000000   0.000000000

     Diagonalizing the dynamical matrix

     q = (    0.000000000   0.000000000   0.000000000 )

     freq (    1) =      -0.593262 [THz] =     -19.789107 [cm-1]
     freq (    2) =       0.215247 [THz] =       7.179870 [cm-1]
     freq (    3) =       0.215247 [THz] =       7.179870 [cm-1]
     freq (    4) =       0.602352 [THz] =      20.092284 [cm-1]
     freq (    5) =       0.602352 [THz] =      20.092284 [cm-1]
     freq (    6) =       0.863214 [THz] =      28.793714 [cm-1]
     freq (    7) =       3.025160 [THz] =     100.908459 [cm-1]
     freq (    8) =       3.189498 [THz] =     106.390202 [cm-1]
     freq (    9) =       3.614842 [THz] =     120.578138 [cm-1]
     freq (   10) =       3.614842 [THz] =     120.578138 [cm-1]
     freq (   11) =       3.663852 [THz] =     122.212935 [cm-1]
     freq (   12) =       3.663852 [THz] =     122.212935 [cm-1]
     freq (   13) =       4.375154 [THz] =     145.939433 [cm-1]
     freq (   14) =       4.375154 [THz] =     145.939433 [cm-1]
     freq (   15) =       4.447237 [THz] =     148.343847 [cm-1]
     freq (   16) =       4.447237 [THz] =     148.343847 [cm-1]
     freq (   17) =       5.767354 [THz] =     192.378214 [cm-1]
     freq (   18) =       6.121460 [THz] =     204.189930 [cm-1]
     freq (   19) =       6.121460 [THz] =     204.189930 [cm-1]
     freq (   20) =       6.465700 [THz] =     215.672550 [cm-1]
     freq (   21) =       6.465700 [THz] =     215.672550 [cm-1]
     freq (   22) =       6.500919 [THz] =     216.847322 [cm-1]
     freq (   23) =       6.889921 [THz] =     229.823016 [cm-1]
     freq (   24) =       6.909494 [THz] =     230.475922 [cm-1]
     freq (   25) =       8.157974 [THz] =     272.120712 [cm-1]
     freq (   26) =       8.157974 [THz] =     272.120712 [cm-1]
     freq (   27) =       8.159601 [THz] =     272.175008 [cm-1]
     freq (   28) =       8.159601 [THz] =     272.175008 [cm-1]
     freq (   29) =       8.828065 [THz] =     294.472560 [cm-1]
     freq (   30) =       8.828065 [THz] =     294.472560 [cm-1]
     freq (   31) =       8.862633 [THz] =     295.625617 [cm-1]
     freq (   32) =       8.862633 [THz] =     295.625617 [cm-1]
     freq (   33) =       9.362968 [THz] =     312.315006 [cm-1]
     freq (   34) =       9.362968 [THz] =     312.315006 [cm-1]
     freq (   35) =       9.389773 [THz] =     313.209097 [cm-1]
     freq (   36) =       9.389773 [THz] =     313.209097 [cm-1]
     freq (   37) =       9.484349 [THz] =     316.363827 [cm-1]
     freq (   38) =       9.559577 [THz] =     318.873180 [cm-1]
     freq (   39) =       9.880763 [THz] =     329.586769 [cm-1]
     freq (   40) =      10.029647 [THz] =     334.553002 [cm-1]
     freq (   41) =      10.268405 [THz] =     342.517119 [cm-1]
     freq (   42) =      10.295445 [THz] =     343.419076 [cm-1]
     freq (   43) =      10.539233 [THz] =     351.550970 [cm-1]
     freq (   44) =      10.539233 [THz] =     351.550970 [cm-1]
     freq (   45) =      10.587156 [THz] =     353.149527 [cm-1]
     freq (   46) =      10.587156 [THz] =     353.149527 [cm-1]
     freq (   47) =      10.715170 [THz] =     357.419591 [cm-1]
     freq (   48) =      10.715170 [THz] =     357.419591 [cm-1]
     freq (   49) =      10.719334 [THz] =     357.558480 [cm-1]
     freq (   50) =      10.719334 [THz] =     357.558480 [cm-1]
     freq (   51) =      11.222356 [THz] =     374.337492 [cm-1]
     freq (   52) =      11.268471 [THz] =     375.875733 [cm-1]
     freq (   53) =      11.878099 [THz] =     396.210740 [cm-1]
     freq (   54) =      11.878099 [THz] =     396.210740 [cm-1]
[...]

     Starting wfcs are    0 atomic +  114 random wfcs

     Band Structure Calculation
     Davidson diagonalization with overlap

     ethr =  5.26E-12,  avg # of iterations = 35.0

     End of band structure calculation

          k = 0.0000 0.0000 0.0000 ( 83541 PWs)   bands (ev):

   -55.6236 -55.6236 -55.3589 -55.3589 -55.3589 -55.3589 -32.7650 -32.7646
   -32.2174 -32.2174 -32.2166 -32.2166 -32.0968 -32.0934 -31.5881 -31.5881
   -31.5875 -31.5875 -31.1614 -31.1613 -30.9342 -30.9342 -30.9341 -30.9341
   -25.1754 -25.1641 -24.5824 -24.5778 -24.5710 -24.5077 -24.4187 -24.4187
   -24.3862 -24.3862 -23.8572 -23.7959 -23.7570 -23.7570 -23.7312 -23.7312
    -7.7548  -7.7366  -7.7366  -7.6826  -7.6826  -7.6626  -7.4274  -7.3691
    -7.1403  -7.0478  -7.0478  -7.0252  -7.0252  -6.8643  -6.8061  -6.7478
    -6.7478  -6.7420  -6.5920  -6.5920  -6.4446  -6.4308  -6.4308  -6.3895
    -6.3895  -6.2957  -5.7993  -5.7979  -5.7979  -5.7934  -5.7934  -5.6764
    -5.6102  -5.5647  -5.5024  -5.4883  -5.4883  -5.4781  -5.4781  -5.1713
    -5.0954  -5.0954  -4.9921  -4.9921  -4.8769  -4.8769  -4.8714  -4.8714
    -1.2373  -1.1918  -0.5125  -0.5125  -0.4695  -0.4695   1.0878   1.1221
     2.2355   2.2355   2.2499   2.2499   2.6447   2.7622   3.1320   3.1320
     3.1549   3.1549   3.4585   3.8891   3.9562   3.9562   4.0211   4.0333
     4.0579   4.0579

[...]

          k =-0.0962 0.1667 0.0000 ( 83555 PWs)   bands (ev):

[...]

          k =-0.1925-0.6667 0.0000 ( 83565 PWs)   bands (ev):

[...]

          k = 0.3849 0.0000 0.0000 ( 83585 PWs)   bands (ev):

   -55.6133 -55.6133 -55.3698 -55.3698 -55.3589 -55.3589 -32.6305 -32.6299
   -32.1800 -32.1792 -32.0964 -32.0955 -32.0464 -32.0433 -31.6617 -31.6610
   -31.6046 -31.6039 -31.2701 -31.2700 -31.1605 -31.1601 -30.9627 -30.9626
   -25.0350 -25.0287 -24.6695 -24.6678 -24.4738 -24.4503 -24.3107 -24.2904
   -24.2495 -24.2099 -23.9644 -23.9358 -23.8951 -23.8744 -23.7706 -23.7673
    -7.7962  -7.7429  -7.6244  -7.5179  -7.5068  -7.3729  -7.2068  -7.2040
    -7.1378  -7.1314  -7.0428  -6.9887  -6.8789  -6.8729  -6.8068  -6.6983
    -6.6830  -6.6215  -6.5618  -6.5449  -6.5087  -6.4837  -6.3756  -6.3178
    -6.2457  -6.1949  -6.0630  -5.9909  -5.9527  -5.8239  -5.7794  -5.7066
    -5.6426  -5.6260  -5.5829  -5.5378  -5.5024  -5.4772  -5.4757  -5.3666
    -5.3225  -5.1838  -5.1769  -5.1144  -4.9693  -4.9290  -4.8369  -4.7746
    -1.3560  -1.3405  -0.3992  -0.3794  -0.3692  -0.3337   0.8980   0.9289
     2.2286   2.2467   2.2472   2.2609   2.7136   2.7553   2.8835   2.9216
     2.9456   2.9500   3.4384   3.5022   3.5110   3.5148   4.0294   4.0473
     4.1273   4.1469

     the Fermi energy is     0.8963 ev

     Writing config to output data dir ./out/_ph0/Nb3F8.q_2/Nb3F8.save/ :
     XML data file

     Nb3F8

     bravais-lattice index     =            0
     lattice parameter (alat)  =      11.1557  a.u.
     unit-cell volume          =    4949.5834 (a.u.)^3
     number of atoms/cell      =           22
     number of atomic types    =            2
     kinetic-energy cut-off    =     100.0000  Ry
     charge density cut-off    =     400.0000  Ry
     convergence threshold     =      1.0E-16
     beta                      =       0.7000
     number of iterations used =            4
     Exchange-correlation= PBE
                           (   1   4   3   4   0   0   0)

     celldm(1)=   11.15573  celldm(2)=    0.00000  celldm(3)=    0.00000
     celldm(4)=    0.00000  celldm(5)=    0.00000  celldm(6)=    0.00000

     crystal axes: (cart. coord. in units of alat)
               a(1) = (  0.8660  0.5000  0.0000 )
               a(2) = ( -0.8660  0.5000  0.0000 )
               a(3) = (  0.0000  0.0000  4.1166 )

     reciprocal axes: (cart. coord. in units 2 pi/alat)
               b(1) = (  0.5774  1.0000 -0.0000 )
               b(2) = ( -0.5774  1.0000  0.0000 )
               b(3) = (  0.0000 -0.0000  0.2429 )

     Atoms inside the unit cell:

     Cartesian axes

     site n.  atom      mass           positions (alat units)
        1  Nb     92.9064   tau(    1) = (    0.25223   -0.00000   -0.42768  )
        2  Nb     92.9064   tau(    2) = (   -0.12611    0.21843   -0.42768  )
        3  Nb     92.9064   tau(    3) = (   -0.12611   -0.21843   -0.42768  )
        4  Nb     92.9064   tau(    4) = (   -0.25223    0.00000    0.42768  )
        5  Nb     92.9064   tau(    5) = (    0.12611   -0.21843    0.42768  )
        6  Nb     92.9064   tau(    6) = (    0.12611    0.21843    0.42768  )
        7  F      18.9984   tau(    7) = (    0.00000    0.00000   -0.69400  )
        8  F      18.9984   tau(    8) = (    0.85400    0.00000   -0.61450  )
        9  F      18.9984   tau(    9) = (    0.43902    0.23959   -0.61450  )
       10  F      18.9984   tau(   10) = (    0.43902   -0.23959   -0.61450  )
       11  F      18.9984   tau(   11) = (    0.57735   -0.00000   -0.23553  )
       12  F      18.9984   tau(   12) = (   -0.28031   -0.00000   -0.20031  )
       13  F      18.9984   tau(   13) = (    0.14016   -0.24276   -0.20031  )
       14  F      18.9984   tau(   14) = (    0.14016    0.24276   -0.20031  )
       15  F      18.9984   tau(   15) = (    0.28031    0.00000    0.20031  )
       16  F      18.9984   tau(   16) = (   -0.14016    0.24276    0.20031  )
       17  F      18.9984   tau(   17) = (   -0.14016   -0.24276    0.20031  )
       18  F      18.9984   tau(   18) = (   -0.57735    0.00000    0.23553  )
       19  F      18.9984   tau(   19) = (   -0.85400   -0.00000    0.61450  )
       20  F      18.9984   tau(   20) = (   -0.43902   -0.23959    0.61450  )
       21  F      18.9984   tau(   21) = (   -0.43902    0.23959    0.61450  )
       22  F      18.9984   tau(   22) = (    0.00000    0.00000    0.69400  )

     Computing dynamical matrix for
                    q = (   0.2886751  -0.5000000   0.0000000 )

      5 Sym.Ops. (with q -> -q+G )

     G cutoff = 1260.9456  (  20905 G-vectors)     FFT grid: ( 72, 72,300)

     number of k points=    26  Gaussian smearing, width (Ry)=  0.0037

     PseudoPot. # 1 for Nb read from file:
     /scratch-shared/mroesner/Nb3X8_cDFPT/pp/Nb_ONCV_PBE-1.2.upf
     MD5 check sum: 2c750ac0b6910ff4cf0ab5f6c4124a64
     Pseudo is Norm-conserving, Zval = 13.0
     Generated using ONCVPSP code by D. R. Hamann
     Using radial grid of  602 points,  6 beta functions with:
                l(1) =   0
                l(2) =   0
                l(3) =   1
                l(4) =   1
                l(5) =   2
                l(6) =   2

     PseudoPot. # 2 for F  read from file:
     /scratch-shared/mroesner/Nb3X8_cDFPT/pp/F_ONCV_PBE-1.2.upf
     MD5 check sum: 1d8275f47d602dd53cad6bcdc0eda7dc
     Pseudo is Norm-conserving, Zval =  7.0
     Generated using ONCVPSP code by D. R. Hamann
     Using radial grid of  602 points,  4 beta functions with:
                l(1) =   0
                l(2) =   0
                l(3) =   1
                l(4) =   1

     Mode symmetry, C_2h (2/m)  point group:

     Atomic displacements:
     There are   65 irreducible representations

[...]

     Representation    65      1 modes -  To be done

     Message from routine init_vloc:
     Interpolation table for Vloc re-allocated

     Alpha used in Ewald sum =   2.8000

     Reading Grimme-D3 Hessian from file: ./out/Nb3F8.hess

     Number of cells replicated along each semiaxis:   10  10   3
     Number of cells in the supercell:      3087
     Number of atoms in the supercell:     67914
     Hessian allocation dimension:  13446972

     Grimme-D3 Hessian read

     Computing dynamical matrix for q:     0.288675   -0.500000    0.000000

     Writing Hessian on file dynamical.false.dat

     Dynamical matrix computed

[...]

     Representation #  16 modes #  16  17

[...]

     Representation #  65 mode #  66

     Self-consistent Calculation

[...]

      thresh= 9.888E-09 alpha_mix =  0.700 |ddv_scf|^2 =  4.391E-17

     End of self-consistent calculation

     Convergence has been achieved

     Number of q in the star =    3
     List of q in the star:
          1   0.288675135  -0.500000000   0.000000000
          2   0.577350269   0.000000000  -0.000000000
          3  -0.288675135  -0.500000000   0.000000000

     Diagonalizing the dynamical matrix

     q = (    0.288675135  -0.500000000   0.000000000 )

     freq (    1) =       1.575851 [THz] =      52.564728 [cm-1]
     freq (    2) =       1.711571 [THz] =      57.091860 [cm-1]
     freq (    3) =       1.747950 [THz] =      58.305348 [cm-1]
     freq (    4) =       1.787833 [THz] =      59.635701 [cm-1]
     freq (    5) =       1.894227 [THz] =      63.184595 [cm-1]
     freq (    6) =       2.134200 [THz] =      71.189265 [cm-1]
     freq (    7) =       2.585508 [THz] =      86.243250 [cm-1]
     freq (    8) =       2.665659 [THz] =      88.916803 [cm-1]
     freq (    9) =       3.526659 [THz] =     117.636670 [cm-1]
     freq (   10) =       3.544192 [THz] =     118.221504 [cm-1]
     freq (   11) =       3.735230 [THz] =     124.593874 [cm-1]
     freq (   12) =       3.772489 [THz] =     125.836693 [cm-1]
     freq (   13) =       4.355192 [THz] =     145.273579 [cm-1]
     freq (   14) =       4.384844 [THz] =     146.262658 [cm-1]
     freq (   15) =       4.839032 [THz] =     161.412719 [cm-1]
     freq (   16) =       4.866990 [THz] =     162.345328 [cm-1]
     freq (   17) =       5.234230 [THz] =     174.595103 [cm-1]
     freq (   18) =       5.591619 [THz] =     186.516344 [cm-1]
     freq (   19) =       5.866962 [THz] =     195.700798 [cm-1]
     freq (   20) =       6.022425 [THz] =     200.886465 [cm-1]
     freq (   21) =       6.150116 [THz] =     205.145773 [cm-1]
     freq (   22) =       6.390189 [THz] =     213.153775 [cm-1]
     freq (   23) =       6.615561 [THz] =     220.671362 [cm-1]
     freq (   24) =       6.724366 [THz] =     224.300713 [cm-1]
     freq (   25) =       7.129933 [THz] =     237.828957 [cm-1]
     freq (   26) =       7.153418 [THz] =     238.612334 [cm-1]
     freq (   27) =       7.635728 [THz] =     254.700476 [cm-1]
     freq (   28) =       7.651077 [THz] =     255.212446 [cm-1]
     freq (   29) =       8.738462 [THz] =     291.483704 [cm-1]
     freq (   30) =       8.771469 [THz] =     292.584723 [cm-1]
     freq (   31) =       9.066734 [THz] =     302.433686 [cm-1]
     freq (   32) =       9.071289 [THz] =     302.585642 [cm-1]
     freq (   33) =       9.290002 [THz] =     309.881100 [cm-1]
     freq (   34) =       9.295168 [THz] =     310.053432 [cm-1]
     freq (   35) =       9.321037 [THz] =     310.916328 [cm-1]
     freq (   36) =       9.327054 [THz] =     311.117033 [cm-1]
     freq (   37) =       9.606025 [THz] =     320.422492 [cm-1]
     freq (   38) =       9.613098 [THz] =     320.658425 [cm-1]
     freq (   39) =       9.717915 [THz] =     324.154754 [cm-1]
     freq (   40) =       9.876783 [THz] =     329.454006 [cm-1]
     freq (   41) =      10.064398 [THz] =     335.712189 [cm-1]
     freq (   42) =      10.108962 [THz] =     337.198691 [cm-1]
     freq (   43) =      10.183720 [THz] =     339.692318 [cm-1]
     freq (   44) =      10.256648 [THz] =     342.124947 [cm-1]
     freq (   45) =      10.274223 [THz] =     342.711204 [cm-1]
     freq (   46) =      10.278634 [THz] =     342.858309 [cm-1]
     freq (   47) =      10.495262 [THz] =     350.084271 [cm-1]
     freq (   48) =      10.518928 [THz] =     350.873663 [cm-1]
     freq (   49) =      10.922573 [THz] =     364.337814 [cm-1]
     freq (   50) =      10.923400 [THz] =     364.365408 [cm-1]
     freq (   51) =      11.507517 [THz] =     383.849437 [cm-1]
     freq (   52) =      11.576810 [THz] =     386.160812 [cm-1]
     freq (   53) =      12.116263 [THz] =     404.155041 [cm-1]
     freq (   54) =      12.142098 [THz] =     405.016787 [cm-1]
     freq (   55) =      12.353795 [THz] =     412.078245 [cm-1]
     freq (   56) =      12.357542 [THz] =     412.203247 [cm-1]
     freq (   57) =      13.124800 [THz] =     437.796214 [cm-1]
     freq (   58) =      13.129472 [THz] =     437.952041 [cm-1]
     freq (   59) =      14.494269 [THz] =     483.476757 [cm-1]
     freq (   60) =      14.595629 [THz] =     486.857775 [cm-1]
     freq (   61) =      15.499712 [THz] =     517.014755 [cm-1]
     freq (   62) =      15.761209 [THz] =     525.737350 [cm-1]
     freq (   63) =      15.833949 [THz] =     528.163692 [cm-1]
     freq (   64) =      16.164221 [THz] =     539.180367 [cm-1]
     freq (   65) =      16.684342 [THz] =     556.529740 [cm-1]
     freq (   66) =      16.777882 [THz] =     559.649896 [cm-1]

     Mode symmetry, C_2h (2/m)  point group:

     freq (   1-   1) =         52.6  [cm-1]   --> B_u
     freq (   2-   2) =         57.1  [cm-1]   --> A_u
     freq (   3-   3) =         58.3  [cm-1]   --> B_g
     freq (   4-   4) =         59.6  [cm-1]   --> A_g
     freq (   5-   5) =         63.2  [cm-1]   --> B_u
     freq (   6-   6) =         71.2  [cm-1]   --> A_g
     freq (   7-   7) =         86.2  [cm-1]   --> A_u
     freq (   8-   8) =         88.9  [cm-1]   --> B_g
     freq (   9-   9) =        117.6  [cm-1]   --> A_g
     freq (  10-  10) =        118.2  [cm-1]   --> B_u
     freq (  11-  11) =        124.6  [cm-1]   --> B_g
     freq (  12-  12) =        125.8  [cm-1]   --> A_u
     freq (  13-  13) =        145.3  [cm-1]   --> B_u
     freq (  14-  14) =        146.3  [cm-1]   --> A_g
     freq (  15-  15) =        161.4  [cm-1]   --> B_g
     freq (  16-  16) =        162.3  [cm-1]   --> A_u
     freq (  17-  17) =        174.6  [cm-1]   --> B_u
     freq (  18-  18) =        186.5  [cm-1]   --> B_g
     freq (  19-  19) =        195.7  [cm-1]   --> A_g
     freq (  20-  20) =        200.9  [cm-1]   --> A_u
     freq (  21-  21) =        205.1  [cm-1]   --> A_g
     freq (  22-  22) =        213.2  [cm-1]   --> B_u
     freq (  23-  23) =        220.7  [cm-1]   --> A_g
     freq (  24-  24) =        224.3  [cm-1]   --> B_u
     freq (  25-  25) =        237.8  [cm-1]   --> B_g
     freq (  26-  26) =        238.6  [cm-1]   --> A_u
     freq (  27-  27) =        254.7  [cm-1]   --> B_u
     freq (  28-  28) =        255.2  [cm-1]   --> A_g
     freq (  29-  29) =        291.5  [cm-1]   --> B_u
     freq (  30-  30) =        292.6  [cm-1]   --> A_g
     freq (  31-  31) =        302.4  [cm-1]   --> A_u
     freq (  32-  32) =        302.6  [cm-1]   --> B_g
     freq (  33-  33) =        309.9  [cm-1]   --> A_u
     freq (  34-  34) =        310.1  [cm-1]   --> B_u
     freq (  35-  35) =        310.9  [cm-1]   --> A_g
     freq (  36-  36) =        311.1  [cm-1]   --> B_g
     freq (  37-  37) =        320.4  [cm-1]   --> B_u
     freq (  38-  38) =        320.7  [cm-1]   --> A_g
     freq (  39-  39) =        324.2  [cm-1]   --> B_g
     freq (  40-  40) =        329.5  [cm-1]   --> A_u
     freq (  41-  41) =        335.7  [cm-1]   --> B_u
     freq (  42-  42) =        337.2  [cm-1]   --> A_g
     freq (  43-  43) =        339.7  [cm-1]   --> B_u
     freq (  44-  44) =        342.1  [cm-1]   --> B_g
     freq (  45-  45) =        342.7  [cm-1]   --> A_u
     freq (  46-  46) =        342.9  [cm-1]   --> A_g
     freq (  47-  47) =        350.1  [cm-1]   --> A_u
     freq (  48-  48) =        350.9  [cm-1]   --> B_g
     freq (  49-  49) =        364.3  [cm-1]   --> B_g
     freq (  50-  50) =        364.4  [cm-1]   --> A_u
     freq (  51-  51) =        383.8  [cm-1]   --> B_u
     freq (  52-  52) =        386.2  [cm-1]   --> A_g
     freq (  53-  53) =        404.2  [cm-1]   --> A_g
     freq (  54-  54) =        405.0  [cm-1]   --> B_u
     freq (  55-  55) =        412.1  [cm-1]   --> B_g
     freq (  56-  56) =        412.2  [cm-1]   --> A_u
     freq (  57-  57) =        437.8  [cm-1]   --> B_u
     freq (  58-  58) =        438.0  [cm-1]   --> A_g
     freq (  59-  59) =        483.5  [cm-1]   --> B_u
     freq (  60-  60) =        486.9  [cm-1]   --> A_g
     freq (  61-  61) =        517.0  [cm-1]   --> B_g
     freq (  62-  62) =        525.7  [cm-1]   --> B_u
     freq (  63-  63) =        528.2  [cm-1]   --> A_u
     freq (  64-  64) =        539.2  [cm-1]   --> A_g
     freq (  65-  65) =        556.5  [cm-1]   --> B_u
     freq (  66-  66) =        559.6  [cm-1]   --> A_g

     General routines

     Parallel routines

     INITIALIZATION:

     DYNAMICAL MATRIX:

                                        0.00s GPU  (    2756 calls)

                                        0.00s GPU  (     198 calls)

      General routines

      Additional routines
                                        0.00s GPU  (   84729 calls)
                                        0.00s GPU  (   84729 calls)

   This run was terminated on:  14:22:30   8May2025

   JOB DONE.