     Program PWSCF v.7.3.1 starts on  7May2025 at 20:48:40

     Waiting for input...
     Reading input from standard input
Warning: card &CELL ignored
Warning: card / ignored
Warning: card &FCP ignored
Warning: card / ignored
Warning: card &RISM ignored
Warning: card / ignored

     Current dimensions of program PWSCF are:
     Max number of different atomic species (ntypx) = 10
     Max number of k-points (npk) =  40000
     Max angular momentum in pseudopotentials (lmaxx) =  4

     IMPORTANT: XC functional enforced from input :
     Exchange-correlation= PBE
                           (   1   4   3   4   0   0   0)
     Any further DFT definition will be discarded
     Please, verify this is what you really want

     Message from routine setup:
     using ibrav=0 with symmetry is DISCOURAGED, use correct ibrav instead

     K-points division:     npool     =      12
     R & G space division:  proc/nbgrp/npool/nimage =      32
     Subspace diagonalization in iterative solution of the eigenvalue problem:
     a serial algorithm will be used

     Message from routine divide_et_impera:
     suboptimal parallelization: some nodes have no k-points

     Using Slab Decomposition

     bravais-lattice index     =            0
     lattice parameter (alat)  =      11.1557  a.u.
     unit-cell volume          =    4949.5834 (a.u.)^3
     number of atoms/cell      =           22
     number of atomic types    =            2
     number of electrons       =       190.00
     number of Kohn-Sham states=          114
     kinetic-energy cutoff     =     100.0000  Ry
     charge density cutoff     =     400.0000  Ry
     scf convergence threshold =      1.0E-12
     mixing beta               =       0.7000
     number of iterations used =            8  plain     mixing
     Exchange-correlation= PBE
                           (   1   4   3   4   0   0   0)

     celldm(1)=  11.155732  celldm(2)=   0.000000  celldm(3)=   0.000000
     celldm(4)=   0.000000  celldm(5)=   0.000000  celldm(6)=   0.000000

     crystal axes: (cart. coord. in units of alat)
               a(1) = (   0.866025   0.500000   0.000000 )
               a(2) = (  -0.866025   0.500000   0.000000 )
               a(3) = (   0.000000   0.000000   4.116649 )

     reciprocal axes: (cart. coord. in units 2 pi/alat)
               b(1) = (  0.577350  1.000000 -0.000000 )
               b(2) = ( -0.577350  1.000000  0.000000 )
               b(3) = (  0.000000 -0.000000  0.242916 )

     PseudoPot. # 1 for Nb read from file:
     /scratch-shared/mroesner/Nb3X8_cDFPT/pp/Nb_ONCV_PBE-1.2.upf
     MD5 check sum: 2c750ac0b6910ff4cf0ab5f6c4124a64
     Pseudo is Norm-conserving, Zval = 13.0
     Generated using ONCVPSP code by D. R. Hamann
     Using radial grid of  602 points,  6 beta functions with:
                l(1) =   0
                l(2) =   0
                l(3) =   1
                l(4) =   1
                l(5) =   2
                l(6) =   2

     PseudoPot. # 2 for F  read from file:
     /scratch-shared/mroesner/Nb3X8_cDFPT/pp/F_ONCV_PBE-1.2.upf
     MD5 check sum: 1d8275f47d602dd53cad6bcdc0eda7dc
     Pseudo is Norm-conserving, Zval =  7.0
     Generated using ONCVPSP code by D. R. Hamann
     Using radial grid of  602 points,  4 beta functions with:
                l(1) =   0
                l(2) =   0
                l(3) =   1
                l(4) =   1

     atomic species   valence    mass     pseudopotential
     Nb               13.00    92.90637     Nb( 1.00)
     F                 7.00    18.99840     F ( 1.00)

     12 Sym. Ops., with inversion, found

                                    s                        frac. trans.

      isym =  1     identity

 cryst.   s( 1) = (     1          0          0      )
                  (     0          1          0      )
                  (     0          0          1      )

 cart.    s( 1) = (  1.0000000  0.0000000  0.0000000 )
                  (  0.0000000  1.0000000  0.0000000 )
                  (  0.0000000  0.0000000  1.0000000 )

      isym =  2     180 deg rotation - cart. axis [0,1,0]

[...]

      isym =  3     120 deg rotation - cryst. axis [0,0,1]

[...]

      isym =  6     180 deg rotation - cryst. axis [2,1,0]

[...]

      isym =  7     inversion

[...]

      isym =  8     inv. 180 deg rotation - cart. axis [0,1,0]

[...]

      isym =  9     inv. 120 deg rotation - cryst. axis [0,0,1]

 cryst.   s( 9) = (     0         -1          0      )
                  (     1          1          0      )
                  (     0          0         -1      )

 cart.    s( 9) = (  0.5000000  0.8660254  0.0000000 )
                  ( -0.8660254  0.5000000  0.0000000 )
                  (  0.0000000  0.0000000 -1.0000000 )

[...]

 cryst.   s(10) = (     1          1          0      )
                  (    -1          0          0      )
                  (     0          0         -1      )

 cart.    s(10) = (  0.5000000 -0.8660254  0.0000000 )
                  (  0.8660254  0.5000000  0.0000000 )
                  (  0.0000000  0.0000000 -1.0000000 )

[...]

      isym = 12     inv. 180 deg rotation - cryst. axis [2,1,0]

 cryst.   s(12) = (    -1          0          0      )
                  (     1          1          0      )
                  (     0          0          1      )

 cart.    s(12) = ( -0.5000000 -0.8660254  0.0000000 )
                  ( -0.8660254  0.5000000  0.0000000 )
                  (  0.0000000  0.0000000  1.0000000 )

   Cartesian axes

     site n.     atom                  positions (alat units)
         1        Nb     tau(   1) = (   0.2522262  -0.0000000  -0.4276782  )
         2        Nb     tau(   2) = (  -0.1261131   0.2184343  -0.4276782  )
         3        Nb     tau(   3) = (  -0.1261131  -0.2184343  -0.4276782  )
         4        Nb     tau(   4) = (  -0.2522262   0.0000000   0.4276782  )
         5        Nb     tau(   5) = (   0.1261131  -0.2184343   0.4276782  )
         6        Nb     tau(   6) = (   0.1261131   0.2184343   0.4276782  )
         7        F      tau(   7) = (   0.0000000   0.0000000  -0.6939995  )
         8        F      tau(   8) = (   0.8540048   0.0000000  -0.6145021  )
         9        F      tau(   9) = (   0.4390230   0.2395899  -0.6145021  )
        10        F      tau(  10) = (   0.4390230  -0.2395899  -0.6145021  )
        11        F      tau(  11) = (   0.5773503  -0.0000000  -0.2355344  )
        12        F      tau(  12) = (  -0.2803149  -0.0000000  -0.2003061  )
        13        F      tau(  13) = (   0.1401575  -0.2427598  -0.2003061  )
        14        F      tau(  14) = (   0.1401575   0.2427598  -0.2003061  )
        15        F      tau(  15) = (   0.2803149   0.0000000   0.2003061  )
        16        F      tau(  16) = (  -0.1401575   0.2427598   0.2003061  )
        17        F      tau(  17) = (  -0.1401575  -0.2427598   0.2003061  )
        18        F      tau(  18) = (  -0.5773503   0.0000000   0.2355344  )
        19        F      tau(  19) = (  -0.8540048  -0.0000000   0.6145021  )
        20        F      tau(  20) = (  -0.4390230  -0.2395899   0.6145021  )
        21        F      tau(  21) = (  -0.4390230   0.2395899   0.6145021  )
        22        F      tau(  22) = (   0.0000000   0.0000000   0.6939995  )

     DFT-D3 Dispersion Correction (no 3-body):
       Reference C6 values for interpolation:

         atom   Coordination number   C6
         F          0.000            19.38
         F          0.998            14.27
         Nb         0.000          2950.50
         Nb         1.954          1161.16
         Nb         2.922           857.79

       Values used:

         atom   Coordination number  R0_AB[au]  C6      C8
         Nb         9.427            3.647    857.79 111659.18
         Nb         9.427            3.647    857.79 111659.18
         Nb         9.427            3.647    857.79 111659.18
         Nb         9.427            3.647    857.79 111659.18
         Nb         9.427            3.647    857.79 111659.18
         Nb         9.427            3.647    857.79 111659.18
         F          2.908            2.173     14.27    244.15
         F          2.018            2.173     14.27    244.15
         F          2.018            2.173     14.27    244.15
         F          2.018            2.173     14.27    244.15
         F          2.850            2.173     14.27    244.15
         F          2.038            2.173     14.27    244.15
         F          2.038            2.173     14.27    244.15
         F          2.038            2.173     14.27    244.15
         F          2.038            2.173     14.27    244.15
         F          2.038            2.173     14.27    244.15
         F          2.038            2.173     14.27    244.15
         F          2.850            2.173     14.27    244.15
         F          2.018            2.173     14.27    244.15
         F          2.018            2.173     14.27    244.15
         F          2.018            2.173     14.27    244.15
         F          2.908            2.173     14.27    244.15

         Molecular C6 ( Ry / a.u.^6 ) =     52655.74

   Crystallographic axes

     site n.     atom                  positions (cryst. coord.)
         1        Nb     tau(   1) = (  0.1456229 -0.1456229 -0.1038899  )
         2        Nb     tau(   2) = (  0.1456229  0.2912458 -0.1038899  )
         3        Nb     tau(   3) = ( -0.2912458 -0.1456229 -0.1038899  )
         4        Nb     tau(   4) = ( -0.1456229  0.1456229  0.1038899  )
         5        Nb     tau(   5) = ( -0.1456229 -0.2912458  0.1038899  )
         6        Nb     tau(   6) = (  0.2912458  0.1456229  0.1038899  )
         7        F      tau(   7) = (  0.0000000  0.0000000 -0.1685836  )
         8        F      tau(   8) = (  0.4930599 -0.4930599 -0.1492724  )
         9        F      tau(   9) = (  0.4930599 -0.0138802 -0.1492724  )
        10        F      tau(  10) = (  0.0138802 -0.4930599 -0.1492724  )
        11        F      tau(  11) = (  0.3333333 -0.3333333 -0.0572151  )
        12        F      tau(  12) = ( -0.1618399  0.1618399 -0.0486576  )
        13        F      tau(  13) = ( -0.1618399 -0.3236798 -0.0486576  )
        14        F      tau(  14) = (  0.3236798  0.1618399 -0.0486576  )
        15        F      tau(  15) = (  0.1618399 -0.1618399  0.0486576  )
        16        F      tau(  16) = (  0.1618399  0.3236798  0.0486576  )
        17        F      tau(  17) = ( -0.3236798 -0.1618399  0.0486576  )
        18        F      tau(  18) = ( -0.3333333  0.3333333  0.0572151  )
        19        F      tau(  19) = ( -0.4930599  0.4930599  0.1492724  )
        20        F      tau(  20) = ( -0.4930599  0.0138802  0.1492724  )
        21        F      tau(  21) = ( -0.0138802  0.4930599  0.1492724  )
        22        F      tau(  22) = (  0.0000000  0.0000000  0.1685836  )

     number of k points=     7  Gaussian smearing, width (Ry)=  0.0037
                       cart. coord. in units 2pi/alat
        k(    1) = (   0.0000000   0.0000000   0.0000000), wk =   0.0555556
        k(    2) = (  -0.0962250   0.1666667   0.0000000), wk =   0.3333333
[...]
     atom    2 type  1   force =     0.00007162   -0.00012406    0.00028394
     atom    3 type  1   force =     0.00007162    0.00012406    0.00028394
     atom    4 type  1   force =     0.00014325    0.00000000   -0.00028394
     atom    5 type  1   force =    -0.00007162    0.00012406   -0.00028394
     atom    6 type  1   force =    -0.00007162   -0.00012406   -0.00028394
     atom    7 type  2   force =    -0.00000000   -0.00000000   -0.00008269
     atom    8 type  2   force =    -0.00001137   -0.00000000   -0.00019394
     atom    9 type  2   force =     0.00000568   -0.00000985   -0.00019394
     atom   10 type  2   force =     0.00000568    0.00000985   -0.00019394
     atom   11 type  2   force =    -0.00000000   -0.00000000    0.00004465
     atom   12 type  2   force =    -0.00009460    0.00000000   -0.00007608
     atom   13 type  2   force =     0.00004730   -0.00008193   -0.00007608
     atom   14 type  2   force =     0.00004730    0.00008193   -0.00007608
     atom   15 type  2   force =     0.00009460    0.00000000    0.00007608
     atom   16 type  2   force =    -0.00004730    0.00008193    0.00007608
     atom   17 type  2   force =    -0.00004730   -0.00008193    0.00007608
     atom   18 type  2   force =     0.00000000   -0.00000000   -0.00004465
     atom   19 type  2   force =     0.00001137   -0.00000000    0.00019394
     atom   20 type  2   force =    -0.00000568    0.00000985    0.00019394
     atom   21 type  2   force =    -0.00000568   -0.00000985    0.00019394
     atom   22 type  2   force =    -0.00000000   -0.00000000    0.00008269
     The non-local contrib.  to forces
     atom    1 type  1   force =    -0.37132984    0.00000000   -0.05526113
     atom    2 type  1   force =     0.18566492   -0.32158107   -0.05526113
     atom    3 type  1   force =     0.18566492    0.32158107   -0.05526113
     atom    4 type  1   force =     0.37132984    0.00000000    0.05526113
     atom    5 type  1   force =    -0.18566492    0.32158107    0.05526113
     atom    6 type  1   force =    -0.18566492   -0.32158107    0.05526113
     atom    7 type  2   force =    -0.00000000   -0.00000000    1.50967421
     atom    8 type  2   force =    -0.58619289   -0.00000000    0.96389690
     atom    9 type  2   force =     0.29309645   -0.50765794    0.96389690
     atom   10 type  2   force =     0.29309645    0.50765794    0.96389690
     atom   11 type  2   force =    -0.00000000   -0.00000000   -1.08564559
     atom   12 type  2   force =     0.77337314   -0.00000000   -1.18418969
     atom   13 type  2   force =    -0.38668657    0.66976078   -1.18418969
     atom   14 type  2   force =    -0.38668657   -0.66976078   -1.18418969
     atom   15 type  2   force =    -0.77337314    0.00000000    1.18418969
     atom   16 type  2   force =     0.38668657   -0.66976078    1.18418969
     atom   17 type  2   force =     0.38668657    0.66976078    1.18418969
     atom   18 type  2   force =    -0.00000000   -0.00000000    1.08564559
     atom   19 type  2   force =     0.58619289   -0.00000000   -0.96389690
     atom   20 type  2   force =    -0.29309645    0.50765794   -0.96389690
     atom   21 type  2   force =    -0.29309645   -0.50765794   -0.96389690
     atom   22 type  2   force =     0.00000000    0.00000000   -1.50967421
     The ionic contribution  to forces
     atom    1 type  1   force =     7.36826262    0.00000000  -86.06366421
     atom    2 type  1   force =    -3.68413132    6.38110262  -86.06366421
     atom    3 type  1   force =    -3.68413132   -6.38110262  -86.06366421
     atom    4 type  1   force =    -7.36826262   -0.00000000   86.06366421
     atom    5 type  1   force =     3.68413132   -6.38110262   86.06366421
     atom    6 type  1   force =     3.68413132    6.38110262   86.06366421
     atom    7 type  2   force =    -0.00000000    0.00000000  -89.49737832
     atom    8 type  2   force =     6.66034174   -0.00000000  -76.68354276
     atom    9 type  2   force =    -3.33017087    5.76802515  -76.68354276
     atom   10 type  2   force =    -3.33017087   -5.76802515  -76.68354276
     atom   11 type  2   force =     0.00000001    0.00000000  -12.02573602
     atom   12 type  2   force =    -9.57122628    0.00000000   -9.62098914
     atom   13 type  2   force =     4.78561314   -8.28892510   -9.62098913
     atom   14 type  2   force =     4.78561314    8.28892510   -9.62098913
     atom   15 type  2   force =     9.57122628   -0.00000000    9.62098914
     atom   16 type  2   force =    -4.78561314    8.28892510    9.62098913
     atom   17 type  2   force =    -4.78561314   -8.28892510    9.62098913
     atom   18 type  2   force =    -0.00000001   -0.00000000   12.02573602
     atom   19 type  2   force =    -6.66034174    0.00000000   76.68354276
     atom   20 type  2   force =     3.33017087   -5.76802515   76.68354276
     atom   21 type  2   force =     3.33017087    5.76802515   76.68354276
     atom   22 type  2   force =     0.00000000   -0.00000000   89.49737832
     The local contribution  to forces
     atom    1 type  1   force =    -6.99604786   -0.00000000   86.11558147
     atom    2 type  1   force =     3.49802388   -6.05875515   86.11558147
     atom    3 type  1   force =     3.49802388    6.05875515   86.11558147
     atom    4 type  1   force =     6.99604786    0.00000000  -86.11558147
     atom    5 type  1   force =    -3.49802388    6.05875515  -86.11558147
     atom    6 type  1   force =    -3.49802388   -6.05875515  -86.11558147
     atom    7 type  2   force =     0.00000000    0.00000000   87.98695168
     atom    8 type  2   force =    -6.07433094   -0.00000000   75.71861806
     atom    9 type  2   force =     3.03716547   -5.26052491   75.71861806
     atom   10 type  2   force =     3.03716547    5.26052491   75.71861806
     atom   11 type  2   force =     0.00000004   -0.00000000   13.11075397
     atom   12 type  2   force =     8.79810770    0.00000000   10.80454892
     atom   13 type  2   force =    -4.39905385    7.61938477   10.80454892
     atom   14 type  2   force =    -4.39905385   -7.61938477   10.80454892
     atom   15 type  2   force =    -8.79810770   -0.00000000  -10.80454892
     atom   16 type  2   force =     4.39905385   -7.61938477  -10.80454892
     atom   17 type  2   force =     4.39905385    7.61938477  -10.80454892
     atom   18 type  2   force =    -0.00000004    0.00000000  -13.11075397
     atom   19 type  2   force =     6.07433094    0.00000000  -75.71861806
     atom   20 type  2   force =    -3.03716547    5.26052491  -75.71861806
     atom   21 type  2   force =    -3.03716547   -5.26052491  -75.71861806
     atom   22 type  2   force =    -0.00000000   -0.00000000  -87.98695168
     The core correction contribution to forces
     atom    1 type  1   force =     0.00000000    0.00000000    0.00000000
     atom    2 type  1   force =     0.00000000    0.00000000    0.00000000
     atom    3 type  1   force =     0.00000000    0.00000000    0.00000000
     atom    4 type  1   force =     0.00000000    0.00000000    0.00000000
     atom    5 type  1   force =     0.00000000    0.00000000    0.00000000
     atom    6 type  1   force =     0.00000000    0.00000000    0.00000000
     atom    7 type  2   force =     0.00000000    0.00000000    0.00000000
     atom    8 type  2   force =     0.00000000    0.00000000    0.00000000
     atom    9 type  2   force =     0.00000000    0.00000000    0.00000000
     atom   10 type  2   force =     0.00000000    0.00000000    0.00000000
     atom   11 type  2   force =     0.00000000    0.00000000    0.00000000
     atom   12 type  2   force =     0.00000000    0.00000000    0.00000000
     atom   13 type  2   force =     0.00000000    0.00000000    0.00000000
     atom   14 type  2   force =     0.00000000    0.00000000    0.00000000
     atom   15 type  2   force =     0.00000000    0.00000000    0.00000000
     atom   16 type  2   force =     0.00000000    0.00000000    0.00000000
     atom   17 type  2   force =     0.00000000    0.00000000    0.00000000
     atom   18 type  2   force =     0.00000000    0.00000000    0.00000000
     atom   19 type  2   force =     0.00000000    0.00000000    0.00000000
     atom   20 type  2   force =     0.00000000    0.00000000    0.00000000
     atom   21 type  2   force =     0.00000000    0.00000000    0.00000000
     atom   22 type  2   force =     0.00000000    0.00000000    0.00000000
     The Hubbard contrib.    to forces
     atom    1 type  1   force =     0.00000000    0.00000000    0.00000000
     atom    2 type  1   force =     0.00000000    0.00000000    0.00000000
     atom    3 type  1   force =     0.00000000    0.00000000    0.00000000
     atom    4 type  1   force =     0.00000000    0.00000000    0.00000000
     atom    5 type  1   force =     0.00000000    0.00000000    0.00000000
     atom    6 type  1   force =     0.00000000    0.00000000    0.00000000
     atom    7 type  2   force =     0.00000000    0.00000000    0.00000000
     atom    8 type  2   force =     0.00000000    0.00000000    0.00000000
     atom    9 type  2   force =     0.00000000    0.00000000    0.00000000
     atom   10 type  2   force =     0.00000000    0.00000000    0.00000000
     atom   11 type  2   force =     0.00000000    0.00000000    0.00000000
     atom   12 type  2   force =     0.00000000    0.00000000    0.00000000
     atom   13 type  2   force =     0.00000000    0.00000000    0.00000000
     atom   14 type  2   force =     0.00000000    0.00000000    0.00000000
     atom   15 type  2   force =     0.00000000    0.00000000    0.00000000
     atom   16 type  2   force =     0.00000000    0.00000000    0.00000000
     atom   17 type  2   force =     0.00000000    0.00000000    0.00000000
     atom   18 type  2   force =     0.00000000    0.00000000    0.00000000
     atom   19 type  2   force =     0.00000000    0.00000000    0.00000000
     atom   20 type  2   force =     0.00000000    0.00000000    0.00000000
     atom   21 type  2   force =     0.00000000    0.00000000    0.00000000
     atom   22 type  2   force =     0.00000000    0.00000000    0.00000000
     The SCF correction term to forces
     atom    1 type  1   force =     0.00000071   -0.00000000   -0.00000125
     atom    2 type  1   force =    -0.00000036    0.00000062   -0.00000125
     atom    3 type  1   force =    -0.00000036   -0.00000062   -0.00000125
     atom    4 type  1   force =    -0.00000071    0.00000000    0.00000125
     atom    5 type  1   force =     0.00000036   -0.00000062    0.00000125
     atom    6 type  1   force =     0.00000036    0.00000062    0.00000125
     atom    7 type  2   force =    -0.00000000   -0.00000000   -0.00000046
     atom    8 type  2   force =     0.00000008   -0.00000000   -0.00000059
     atom    9 type  2   force =    -0.00000004    0.00000007   -0.00000059
     atom   10 type  2   force =    -0.00000004   -0.00000007   -0.00000059
     atom   11 type  2   force =     0.00000000    0.00000000    0.00000022
     atom   12 type  2   force =    -0.00000048   -0.00000000    0.00000028
     atom   13 type  2   force =     0.00000024   -0.00000042    0.00000028
     atom   14 type  2   force =     0.00000024    0.00000042    0.00000028
     atom   15 type  2   force =     0.00000048   -0.00000000   -0.00000028
     atom   16 type  2   force =    -0.00000024    0.00000042   -0.00000028
     atom   17 type  2   force =    -0.00000024   -0.00000042   -0.00000028
     atom   18 type  2   force =    -0.00000000    0.00000000   -0.00000022
     atom   19 type  2   force =    -0.00000008    0.00000000    0.00000059
     atom   20 type  2   force =     0.00000004   -0.00000007    0.00000059
     atom   21 type  2   force =     0.00000004    0.00000007    0.00000059
     atom   22 type  2   force =     0.00000000    0.00000000    0.00000046

     DFT-D3 dispersion contribution to forces:
     atom    1 type  1   force =    -0.00102893    0.00000000    0.00362905
     atom    2 type  1   force =     0.00051446   -0.00089108    0.00362905
     atom    3 type  1   force =     0.00051446    0.00089108    0.00362905
     atom    4 type  1   force =     0.00102893    0.00000000   -0.00362905
     atom    5 type  1   force =    -0.00051446    0.00089108   -0.00362905
     atom    6 type  1   force =    -0.00051446   -0.00089108   -0.00362905
     atom    7 type  2   force =    -0.00000000   -0.00000000    0.00067020
     atom    8 type  2   force =     0.00017065    0.00000000    0.00083444
     atom    9 type  2   force =    -0.00008532    0.00014778    0.00083444
     atom   10 type  2   force =    -0.00008532   -0.00014778    0.00083444
     atom   11 type  2   force =    -0.00000000    0.00000000    0.00067206
     atom   12 type  2   force =    -0.00034867   -0.00000000    0.00055356
     atom   13 type  2   force =     0.00017434   -0.00030196    0.00055356
     atom   14 type  2   force =     0.00017434    0.00030196    0.00055356
     atom   15 type  2   force =     0.00034867   -0.00000000   -0.00055356
     atom   16 type  2   force =    -0.00017434    0.00030196   -0.00055356
     atom   17 type  2   force =    -0.00017434   -0.00030196   -0.00055356
     atom   18 type  2   force =     0.00000000    0.00000000   -0.00067206
     atom   19 type  2   force =    -0.00017065    0.00000000   -0.00083444
     atom   20 type  2   force =     0.00008532   -0.00014778   -0.00083444
     atom   21 type  2   force =     0.00008532    0.00014778   -0.00083444
     atom   22 type  2   force =     0.00000000   -0.00000000   -0.00067020

     Total force =     0.000969     Total SCF correction =     0.000004

     DFT-D3 dispersion Force =     0.009700

     Computing stress (Cartesian axis) and pressure

          total   stress  (Ry/bohr**3)                   (kbar)     P=        4.07
   0.00004169  -0.00000000   0.00000000            6.13       -0.00        0.00
  -0.00000000   0.00004169  -0.00000000           -0.00        6.13       -0.00
   0.00000000   0.00000000  -0.00000047            0.00        0.00       -0.07

     kinetic stress (kbar)  14391.41     -0.00      0.00
                               -0.00  14391.41     -0.00
                               -0.00     -0.00  14368.15

     local   stress (kbar)-370737.39     -0.00     -0.00
                               -0.00-370737.39     -0.00
                               -0.00     -0.00 357920.02

     nonloc. stress (kbar)    708.79     -0.00     -0.00
                               -0.00    708.79      0.00
                                0.00      0.00    725.03

     hartree stress (kbar) 183810.29      0.00      0.00
                                0.00 183810.29      0.00
                                0.00      0.00-176125.98

     exc-cor stress (kbar)  -2165.27     -0.00      0.00
                               -0.00  -2165.27     -0.00
                                0.00     -0.00  -2170.36

     corecor stress (kbar)      0.00      0.00      0.00
                                0.00      0.00      0.00
                                0.00      0.00      0.00

     ewald   stress (kbar) 174005.05      0.00      0.00
                                0.00 174005.05     -0.00
                                0.00     -0.00-194712.16

     hubbard stress (kbar)      0.00      0.00      0.00
                                0.00      0.00      0.00
                                0.00      0.00      0.00

     DFT-D   stress (kbar)     -6.75      0.00     -0.00
                                0.00     -6.75     -0.00
                               -0.00     -0.00     -4.77

     XDM     stress (kbar)      0.00      0.00      0.00
                                0.00      0.00      0.00
                                0.00      0.00      0.00

     dft-nl  stress (kbar)      0.00      0.00      0.00
                                0.00      0.00      0.00
                                0.00      0.00      0.00

     TS-vdW  stress (kbar)      0.00      0.00      0.00
                                0.00      0.00      0.00
                                0.00      0.00      0.00

     MDB     stress (kbar)      0.00      0.00      0.00
                                0.00      0.00      0.00
                                0.00      0.00      0.00

     3D-RISM stress (kbar)      0.00      0.00      0.00
                                0.00      0.00      0.00
                                0.00      0.00      0.00

     Writing all to output data dir ./out/Nb3F8.save/ :
     XML data file, charge density, pseudopotentials, collected wavefunctions

     General routines

     Parallel routines

   This run was terminated on:  20:49:54   7May2025

   JOB DONE.