     Program PHONON v.7.4.1 starts on 11May2025 at 18:15:33

     Waiting for input...
     Reading input from standard input

     Reading xml data from directory:

     ./out/Nb3Cl8.save/

     K-points division:     npool     =      12
     R & G space division:  proc/nbgrp/npool/nimage =      32
     Subspace diagonalization in iterative solution of the eigenvalue problem:
     a serial algorithm will be used

     IMPORTANT: XC functional enforced from input :
     Exchange-correlation= PBE
                           (   1   4   3   4   0   0   0)
     Any further DFT definition will be discarded
     Please, verify this is what you really want

     Using Slab Decomposition

     Reading collected, re-writing distributed wavefunctions in ./out/

     cDFPT active subspace:
     Complete band 95
     Complete band 96

     Saving dvscf to file. Distribute only q points, not irreducible representations.
        1 /   4 q-points for this run, from  4 to  4:
       N       xq(1)         xq(2)         xq(3)
       1   0.000000000   0.000000000   0.000000000
       2   0.000000000   0.000000000  -0.274267270
       3   0.288675135  -0.500000000   0.091422423
       4   0.288675135  -0.500000000  -0.182844846

     Calculation of q =    0.2886751  -0.5000000  -0.1828448

     Bands found: reading from ./out/_ph0/Nb3Cl8.q_4/

     Reading xml data from directory:

     ./out/_ph0/Nb3Cl8.q_4/Nb3Cl8.save/
     Message from routine qexsd_readschema :
     input info not found or not readable in xml file

     IMPORTANT: XC functional enforced from input :
     Exchange-correlation= PBE
                           (   1   4   3   4   0   0   0)
     Any further DFT definition will be discarded
     Please, verify this is what you really want

     Using Slab Decomposition

     read_file_new: Wavefunctions not in collected format?!?
     read_file: Wavefunctions in collected format not available

     Restart in Phonon calculation

     Nb3Cl8

     bravais-lattice index     =            0
     lattice parameter (alat)  =      12.7288  a.u.
     unit-cell volume          =    3256.0167 (a.u.)^3
     number of atoms/cell      =           22
     number of atomic types    =            2
     kinetic-energy cut-off    =     100.0000  Ry
     charge density cut-off    =     400.0000  Ry
     convergence threshold     =      1.0E-16
     beta                      =       0.7000
     number of iterations used =            4
     Exchange-correlation= PBE
                           (   1   4   3   4   0   0   0)

     celldm(1)=   12.72878  celldm(2)=    0.00000  celldm(3)=    0.00000
     celldm(4)=    0.00000  celldm(5)=    0.00000  celldm(6)=    0.00000

     crystal axes: (cart. coord. in units of alat)
               a(1) = (  0.8660  0.5000  0.0000 )
               a(2) = ( -0.8660  0.5000  0.0000 )
               a(3) = ( -0.5774  0.0000  1.8230 )

     reciprocal axes: (cart. coord. in units 2 pi/alat)
               b(1) = (  0.5774  1.0000  0.1828 )
               b(2) = ( -0.5774  1.0000 -0.1828 )
               b(3) = (  0.0000 -0.0000  0.5485 )

     Atoms inside the unit cell:

     Cartesian axes

     site n.  atom      mass           positions (alat units)
        1  Nb     92.9064   tau(    1) = (    0.23978    0.00000   -0.46026  )
        2  Nb     92.9064   tau(    2) = (   -0.11989    0.20765   -0.46026  )
        3  Nb     92.9064   tau(    3) = (   -0.11989   -0.20765   -0.46026  )
        4  Nb     92.9064   tau(    4) = (   -0.23978    0.00000    0.46026  )
        5  Nb     92.9064   tau(    5) = (    0.11989   -0.20765    0.46026  )
        6  Nb     92.9064   tau(    6) = (    0.11989    0.20765    0.46026  )
        7  Cl     35.4527   tau(    7) = (   -0.00000    0.00000   -0.73265  )
        8  Cl     35.4527   tau(    8) = (    0.86951    0.00000   -0.66249  )
        9  Cl     35.4527   tau(    9) = (    0.43127    0.25301   -0.66249  )
       10  Cl     35.4527   tau(   10) = (    0.43127   -0.25301   -0.66249  )
       11  Cl     35.4527   tau(   11) = (    0.57735    0.00000   -0.25797  )
       12  Cl     35.4527   tau(   12) = (   -0.28658    0.00000   -0.21680  )
       13  Cl     35.4527   tau(   13) = (    0.14329   -0.24819   -0.21680  )
       14  Cl     35.4527   tau(   14) = (    0.14329    0.24819   -0.21680  )
       15  Cl     35.4527   tau(   15) = (    0.28658    0.00000    0.21680  )
       16  Cl     35.4527   tau(   16) = (   -0.14329    0.24819    0.21680  )
       17  Cl     35.4527   tau(   17) = (   -0.14329   -0.24819    0.21680  )
       18  Cl     35.4527   tau(   18) = (   -0.57735    0.00000    0.25797  )
       19  Cl     35.4527   tau(   19) = (   -0.86951    0.00000    0.66249  )
       20  Cl     35.4527   tau(   20) = (   -0.43127   -0.25301    0.66249  )
       21  Cl     35.4527   tau(   21) = (   -0.43127    0.25301    0.66249  )
       22  Cl     35.4527   tau(   22) = (    0.00000    0.00000    0.73265  )

     Computing dynamical matrix for
                    q = (   0.2886751  -0.5000000  -0.1828448 )

      5 Sym.Ops. (with q -> -q+G )

     G cutoff = 1641.6235  (  13748 G-vectors)     FFT grid: (180,180,180)

     number of k points=   136  Gaussian smearing, width (Ry)=  0.0037

     PseudoPot. # 1 for Nb read from file:
     /scratch-shared/mroesner/Nb3X8_cDFPT/pp/Nb_ONCV_PBE-1.2.upf
     MD5 check sum: 2c750ac0b6910ff4cf0ab5f6c4124a64
     Pseudo is Norm-conserving, Zval = 13.0
     Generated using ONCVPSP code by D. R. Hamann
     Using radial grid of  602 points,  6 beta functions with:
                l(1) =   0
                l(2) =   0
                l(3) =   1
                l(4) =   1
                l(5) =   2
                l(6) =   2

     PseudoPot. # 2 for Cl read from file:
     /scratch-shared/mroesner/Nb3X8_cDFPT/pp/Cl_ONCV_PBE-1.2.upf
     MD5 check sum: 0f993535b366f580ecbcdacce103c843
     Pseudo is Norm-conserving, Zval =  7.0
     Generated using ONCVPSP code by D. R. Hamann
     Using radial grid of  602 points,  4 beta functions with:
                l(1) =   0
                l(2) =   0
                l(3) =   1
                l(4) =   1

     Mode symmetry, C_2h (2/m)  point group:

     Atomic displacements:
     There are   64 irreducible representations

     Representation     1      1 modes -  Done

     Representation     2      1 modes -  Done

     Representation     3      1 modes -  To be done

[...]

     Representation    64      1 modes -  To be done

     Message from routine init_vloc:
     Interpolation table for Vloc re-allocated

     Representation #   3 mode #   3

     Self-consistent Calculation

      thresh= 5.523E-09 alpha_mix =  0.700 |ddv_scf|^2 =  1.887E-15

[...]

     End of self-consistent calculation

     Convergence has been achieved

[...]

     Representation #   9 modes #   9  10

[...]

     Representation #  14 modes #  15  16

[...]

     Representation #  64 mode #  66

     Self-consistent Calculation

[...]

      thresh= 1.535E-09 alpha_mix =  0.700 |ddv_scf|^2 =  2.218E-17

     End of self-consistent calculation

     Convergence has been achieved

     Number of q in the star =    3
     List of q in the star:
          1   0.288675135  -0.500000000  -0.182844846
          2   0.577350269   0.000000000   0.182844846
          3  -0.288675135  -0.500000000   0.182844846

     Diagonalizing the dynamical matrix

     q = (    0.288675135  -0.500000000  -0.182844846 )

     freq (    1) =       1.879084 [THz] =      62.679483 [cm-1]
     freq (    2) =       2.044807 [THz] =      68.207434 [cm-1]
     freq (    3) =       2.066455 [THz] =      68.929509 [cm-1]
     freq (    4) =       2.072270 [THz] =      69.123472 [cm-1]
     freq (    5) =       2.453843 [THz] =      81.851383 [cm-1]
     freq (    6) =       2.487758 [THz] =      82.982688 [cm-1]
     freq (    7) =       2.960655 [THz] =      98.756824 [cm-1]
     freq (    8) =       2.962087 [THz] =      98.804585 [cm-1]
     freq (    9) =       3.113623 [THz] =     103.859285 [cm-1]
     freq (   10) =       3.223582 [THz] =     107.527132 [cm-1]
     freq (   11) =       3.361442 [THz] =     112.125622 [cm-1]
     freq (   12) =       3.386948 [THz] =     112.976418 [cm-1]
     freq (   13) =       4.028878 [THz] =     134.388900 [cm-1]
     freq (   14) =       4.195142 [THz] =     139.934886 [cm-1]
     freq (   15) =       4.196050 [THz] =     139.965148 [cm-1]
     freq (   16) =       4.240860 [THz] =     141.459865 [cm-1]
     freq (   17) =       4.607348 [THz] =     153.684603 [cm-1]
     freq (   18) =       4.785384 [THz] =     159.623229 [cm-1]
     freq (   19) =       4.817306 [THz] =     160.688046 [cm-1]
     freq (   20) =       4.902154 [THz] =     163.518272 [cm-1]
     freq (   21) =       5.111849 [THz] =     170.512936 [cm-1]
     freq (   22) =       5.140833 [THz] =     171.479747 [cm-1]
     freq (   23) =       5.226835 [THz] =     174.348436 [cm-1]
     freq (   24) =       5.333107 [THz] =     177.893293 [cm-1]
     freq (   25) =       5.350377 [THz] =     178.469367 [cm-1]
     freq (   26) =       5.378818 [THz] =     179.418047 [cm-1]
     freq (   27) =       5.678605 [THz] =     189.417888 [cm-1]
     freq (   28) =       5.713299 [THz] =     190.575146 [cm-1]
     freq (   29) =       6.413451 [THz] =     213.929687 [cm-1]
     freq (   30) =       6.449285 [THz] =     215.124978 [cm-1]
     freq (   31) =       6.449292 [THz] =     215.125230 [cm-1]
     freq (   32) =       6.452440 [THz] =     215.230218 [cm-1]
     freq (   33) =       6.771603 [THz] =     225.876359 [cm-1]
     freq (   34) =       6.809014 [THz] =     227.124253 [cm-1]
     freq (   35) =       6.850188 [THz] =     228.497671 [cm-1]
     freq (   36) =       6.928686 [THz] =     231.116085 [cm-1]
     freq (   37) =       6.956995 [THz] =     232.060390 [cm-1]
     freq (   38) =       7.014143 [THz] =     233.966625 [cm-1]
     freq (   39) =       7.078599 [THz] =     236.116635 [cm-1]
     freq (   40) =       7.117539 [THz] =     237.415554 [cm-1]
     freq (   41) =       7.528102 [THz] =     251.110458 [cm-1]
     freq (   42) =       7.590223 [THz] =     253.182577 [cm-1]
     freq (   43) =       7.635555 [THz] =     254.694688 [cm-1]
     freq (   44) =       7.663400 [THz] =     255.623517 [cm-1]
     freq (   45) =       7.814578 [THz] =     260.666268 [cm-1]
     freq (   46) =       7.856326 [THz] =     262.058836 [cm-1]
     freq (   47) =       8.136156 [THz] =     271.392965 [cm-1]
     freq (   48) =       8.151448 [THz] =     271.903034 [cm-1]
     freq (   49) =       8.520371 [THz] =     284.208971 [cm-1]
     freq (   50) =       8.543102 [THz] =     284.967215 [cm-1]
     freq (   51) =       8.581555 [THz] =     286.249849 [cm-1]
     freq (   52) =       8.606872 [THz] =     287.094359 [cm-1]
     freq (   53) =       8.891679 [THz] =     296.594474 [cm-1]
     freq (   54) =       8.942417 [THz] =     298.286937 [cm-1]
     freq (   55) =       9.156622 [THz] =     305.432049 [cm-1]
     freq (   56) =       9.195080 [THz] =     306.714853 [cm-1]
     freq (   57) =       9.543122 [THz] =     318.324291 [cm-1]
     freq (   58) =       9.595222 [THz] =     320.062166 [cm-1]
     freq (   59) =      10.095807 [THz] =     336.759885 [cm-1]
     freq (   60) =      10.259883 [THz] =     342.232872 [cm-1]
     freq (   61) =      10.357019 [THz] =     345.472979 [cm-1]
     freq (   62) =      10.464218 [THz] =     349.048747 [cm-1]
     freq (   63) =      10.845718 [THz] =     361.774198 [cm-1]
     freq (   64) =      10.972078 [THz] =     365.989127 [cm-1]
     freq (   65) =      11.403970 [THz] =     380.395495 [cm-1]
     freq (   66) =      11.464876 [THz] =     382.427101 [cm-1]

     Mode symmetry, C_2h (2/m)  point group:

     freq (   1-   1) =         62.7  [cm-1]   --> B_u
     freq (   2-   2) =         68.2  [cm-1]   --> A_g
     freq (   3-   3) =         68.9  [cm-1]   --> B_g
     freq (   4-   4) =         69.1  [cm-1]   --> A_u
     freq (   5-   5) =         81.9  [cm-1]   --> B_u
     freq (   6-   6) =         83.0  [cm-1]   --> A_g
     freq (   7-   7) =         98.8  [cm-1]   --> B_g
     freq (   8-   8) =         98.8  [cm-1]   --> A_u
     freq (   9-   9) =        103.9  [cm-1]   --> A_u
     freq (  10-  10) =        107.5  [cm-1]   --> B_g
     freq (  11-  11) =        112.1  [cm-1]   --> A_g
     freq (  12-  12) =        113.0  [cm-1]   --> B_u
     freq (  13-  13) =        134.4  [cm-1]   --> B_g
     freq (  14-  14) =        139.9  [cm-1]   --> A_u
     freq (  15-  15) =        140.0  [cm-1]   --> B_u
     freq (  16-  16) =        141.5  [cm-1]   --> A_g
     freq (  17-  17) =        153.7  [cm-1]   --> B_g
     freq (  18-  18) =        159.6  [cm-1]   --> A_u
     freq (  19-  19) =        160.7  [cm-1]   --> A_g
     freq (  20-  20) =        163.5  [cm-1]   --> B_u
     freq (  21-  21) =        170.5  [cm-1]   --> A_g
     freq (  22-  22) =        171.5  [cm-1]   --> B_u
     freq (  23-  23) =        174.3  [cm-1]   --> B_u
     freq (  24-  24) =        177.9  [cm-1]   --> B_g
     freq (  25-  25) =        178.5  [cm-1]   --> A_u
     freq (  26-  26) =        179.4  [cm-1]   --> A_g
     freq (  27-  27) =        189.4  [cm-1]   --> A_g
     freq (  28-  28) =        190.6  [cm-1]   --> B_u
     freq (  29-  29) =        213.9  [cm-1]   --> B_u
     freq (  30-  30) =        215.1  [cm-1]   --> B_g
     freq (  31-  31) =        215.1  [cm-1]   --> A_u
     freq (  32-  32) =        215.2  [cm-1]   --> A_g
     freq (  33-  33) =        225.9  [cm-1]   --> A_g
     freq (  34-  34) =        227.1  [cm-1]   --> B_u
     freq (  35-  35) =        228.5  [cm-1]   --> B_g
     freq (  36-  36) =        231.1  [cm-1]   --> A_u
     freq (  37-  37) =        232.1  [cm-1]   --> B_u
     freq (  38-  38) =        234.0  [cm-1]   --> A_g
     freq (  39-  39) =        236.1  [cm-1]   --> B_g
     freq (  40-  40) =        237.4  [cm-1]   --> A_u
     freq (  41-  41) =        251.1  [cm-1]   --> B_u
     freq (  42-  42) =        253.2  [cm-1]   --> A_g
     freq (  43-  43) =        254.7  [cm-1]   --> B_g
     freq (  44-  44) =        255.6  [cm-1]   --> A_u
     freq (  45-  45) =        260.7  [cm-1]   --> A_g
     freq (  46-  46) =        262.1  [cm-1]   --> B_u
     freq (  47-  47) =        271.4  [cm-1]   --> A_u
     freq (  48-  48) =        271.9  [cm-1]   --> B_g
     freq (  49-  49) =        284.2  [cm-1]   --> B_g
     freq (  50-  50) =        285.0  [cm-1]   --> B_u
     freq (  51-  51) =        286.2  [cm-1]   --> A_u
     freq (  52-  52) =        287.1  [cm-1]   --> A_g
     freq (  53-  53) =        296.6  [cm-1]   --> B_u
     freq (  54-  54) =        298.3  [cm-1]   --> A_g
     freq (  55-  55) =        305.4  [cm-1]   --> B_g
     freq (  56-  56) =        306.7  [cm-1]   --> A_u
     freq (  57-  57) =        318.3  [cm-1]   --> B_u
     freq (  58-  58) =        320.1  [cm-1]   --> A_g
     freq (  59-  59) =        336.8  [cm-1]   --> B_u
     freq (  60-  60) =        342.2  [cm-1]   --> A_g
     freq (  61-  61) =        345.5  [cm-1]   --> B_g
     freq (  62-  62) =        349.0  [cm-1]   --> A_u
     freq (  63-  63) =        361.8  [cm-1]   --> A_g
     freq (  64-  64) =        366.0  [cm-1]   --> B_u
     freq (  65-  65) =        380.4  [cm-1]   --> B_u
     freq (  66-  66) =        382.4  [cm-1]   --> A_g

     INITIALIZATION:

     DYNAMICAL MATRIX:

                                        0.00s GPU  (    4974 calls)
                                        0.00s GPU  (    4476 calls)
                                        0.00s GPU  (     829 calls)

                                        0.00s GPU  (     384 calls)

      General routines

      Additional routines
                                        0.00s GPU  (  211146 calls)

   This run was terminated on:  12:17:20  12May2025

   JOB DONE.