     Program PHONON v.7.3.1 starts on  7May2025 at 21: 5:32

     Waiting for input...
     Reading input from standard input
     Run is not recoverable starting from scratch

     Reading xml data from directory:

     ./out/Nb3Cl8.save/

     K-points division:     npool     =      12
     R & G space division:  proc/nbgrp/npool/nimage =      32
     Subspace diagonalization in iterative solution of the eigenvalue problem:
     a serial algorithm will be used

     IMPORTANT: XC functional enforced from input :
     Exchange-correlation= PBE
                           (   1   4   3   4   0   0   0)
     Any further DFT definition will be discarded
     Please, verify this is what you really want

     Using Slab Decomposition

     Message from routine divide_et_impera:
     suboptimal parallelization: some nodes have no k-points
     Reading collected, re-writing distributed wavefunctions in ./out/

     Dynamical matrices for ( 2, 2, 1)  uniform grid of q-points
     (   2 q-points):
       N         xq(1)         xq(2)         xq(3)
       1   0.000000000   0.000000000   0.000000000
       2   0.288675135  -0.500000000   0.000000000

     Number and degeneracy of irreps per q-point
       N         xq(1)         xq(2)         xq(3)   N irreps
       1   0.000000000   0.000000000   0.000000000      44
        1   1   1   1   1   1   1   1   1   1   1   2   2   2   2   2   2   2
   2   2   2   2   1   1   1   1   1   1   1   1   1   1   1   2   2   2
   2   2   2   2   2   2   2   2
       2   0.288675135  -0.500000000   0.000000000      66
     No degeneracy

     Saving dvscf to file. Distribute only q points, not irreducible representations.

     Calculation of q =    0.0000000   0.0000000   0.0000000

     Nb3Cl8

     bravais-lattice index     =            0
     lattice parameter (alat)  =      12.7288  a.u.
     unit-cell volume          =    8140.0419 (a.u.)^3
     number of atoms/cell      =           22
     number of atomic types    =            2
     kinetic-energy cut-off    =     100.0000  Ry
     charge density cut-off    =     400.0000  Ry
     convergence threshold     =      1.0E-16
     beta                      =       0.7000
     number of iterations used =            4
     Exchange-correlation= PBE
                           (   1   4   3   4   0   0   0)

     celldm(1)=   12.72878  celldm(2)=    0.00000  celldm(3)=    0.00000
     celldm(4)=    0.00000  celldm(5)=    0.00000  celldm(6)=    0.00000

     crystal axes: (cart. coord. in units of alat)
               a(1) = (  0.8660  0.5000  0.0000 )
               a(2) = ( -0.8660  0.5000  0.0000 )
               a(3) = (  0.0000  0.0000  4.5576 )

     reciprocal axes: (cart. coord. in units 2 pi/alat)
               b(1) = (  0.5774  1.0000 -0.0000 )
               b(2) = ( -0.5774  1.0000  0.0000 )
               b(3) = (  0.0000 -0.0000  0.2194 )

     Atoms inside the unit cell:

     Cartesian axes

     site n.  atom      mass           positions (alat units)
        1  Nb     92.9064   tau(    1) = (    0.23992   -0.00000   -0.46280  )
        2  Nb     92.9064   tau(    2) = (   -0.11996    0.20778   -0.46280  )
        3  Nb     92.9064   tau(    3) = (   -0.11996   -0.20778   -0.46280  )
        4  Nb     92.9064   tau(    4) = (   -0.23992    0.00000    0.46280  )
        5  Nb     92.9064   tau(    5) = (    0.11996   -0.20778    0.46280  )
        6  Nb     92.9064   tau(    6) = (    0.11996    0.20778    0.46280  )
        7  Cl     35.4527   tau(    7) = (    0.00000    0.00000   -0.73702  )
        8  Cl     35.4527   tau(    8) = (   -0.86393   -0.00000   -0.66622  )
        9  Cl     35.4527   tau(    9) = (   -0.43406   -0.24819   -0.66622  )
       10  Cl     35.4527   tau(   10) = (   -0.43406    0.24819   -0.66622  )
       11  Cl     35.4527   tau(   11) = (    0.57735    0.00000   -0.25993  )
       12  Cl     35.4527   tau(   12) = (   -0.28634    0.00000   -0.21902  )
       13  Cl     35.4527   tau(   13) = (    0.14317   -0.24798   -0.21902  )
       14  Cl     35.4527   tau(   14) = (    0.14317    0.24798   -0.21902  )
       15  Cl     35.4527   tau(   15) = (    0.28634   -0.00000    0.21902  )
       16  Cl     35.4527   tau(   16) = (   -0.14317    0.24798    0.21902  )
       17  Cl     35.4527   tau(   17) = (   -0.14317   -0.24798    0.21902  )
       18  Cl     35.4527   tau(   18) = (   -0.57735   -0.00000    0.25993  )
       19  Cl     35.4527   tau(   19) = (    0.86393    0.00000    0.66622  )
       20  Cl     35.4527   tau(   20) = (    0.43406    0.24819    0.66622  )
       21  Cl     35.4527   tau(   21) = (    0.43406   -0.24819    0.66622  )
       22  Cl     35.4527   tau(   22) = (    0.00000    0.00000    0.73702  )

     Computing dynamical matrix for
                    q = (   0.0000000   0.0000000   0.0000000 )

     13 Sym.Ops. (with q -> -q+G )

     G cutoff = 1641.6235  (  34378 G-vectors)     FFT grid: ( 81, 81,375)

     number of k points=     7  Gaussian smearing, width (Ry)=  0.0037

     PseudoPot. # 1 for Nb read from file:
     /scratch-shared/mroesner/Nb3X8_cDFPT/pp/Nb_ONCV_PBE-1.2.upf
     MD5 check sum: 2c750ac0b6910ff4cf0ab5f6c4124a64
     Pseudo is Norm-conserving, Zval = 13.0
     Generated using ONCVPSP code by D. R. Hamann
     Using radial grid of  602 points,  6 beta functions with:
                l(1) =   0
                l(2) =   0
                l(3) =   1
                l(4) =   1
                l(5) =   2
                l(6) =   2

     PseudoPot. # 2 for Cl read from file:
     /scratch-shared/mroesner/Nb3X8_cDFPT/pp/Cl_ONCV_PBE-1.2.upf
     MD5 check sum: 0f993535b366f580ecbcdacce103c843
     Pseudo is Norm-conserving, Zval =  7.0
     Generated using ONCVPSP code by D. R. Hamann
     Using radial grid of  602 points,  4 beta functions with:
                l(1) =   0
                l(2) =   0
                l(3) =   1
                l(4) =   1

     Mode symmetry, D_3d (-3m)  point group:

     Atomic displacements:
     There are   44 irreducible representations

     Representation     1      1 modes -  To be done

[...]

     Alpha used in Ewald sum =   2.8000

     Reading Grimme-D3 Hessian from file: ./out/Nb3Cl8.hess

     Number of cells replicated along each semiaxis:    9   9   2
     Number of cells in the supercell:      1805
     Number of atoms in the supercell:     39710
     Hessian allocation dimension:   7862580

     Grimme-D3 Hessian read

     Computing dynamical matrix for q:     0.000000    0.000000    0.000000

     Writing Hessian on file dynamical.false.dat

     Dynamical matrix computed

     Representation #   1 mode #   1

     Self-consistent Calculation

     Pert. #  1: Fermi energy shift (Ry) =    -3.8458E-01    -4.8468E-27

      thresh= 1.000E-02 alpha_mix =  0.700 |ddv_scf|^2 =  1.659E-07

[...]

     End of self-consistent calculation

     Convergence has been achieved

[...]

     Representation #  12 modes #  12  13

[...]

     Representation #  44 modes #  65  66

[...]

     Pert. #  1: Fermi energy shift (Ry) =     1.6156E-27     1.1958E-43
     Pert. #  2: Fermi energy shift (Ry) =    -5.1160E-27    -1.1958E-43

[...]

     Number of q in the star =    1
     List of q in the star:
          1   0.000000000   0.000000000   0.000000000

     Diagonalizing the dynamical matrix

     q = (    0.000000000   0.000000000   0.000000000 )

     freq (    1) =      -0.162482 [THz] =      -5.419806 [cm-1]
     freq (    2) =      -0.162482 [THz] =      -5.419806 [cm-1]
     freq (    3) =       0.049599 [THz] =       1.654437 [cm-1]
     freq (    4) =       0.542928 [THz] =      18.110124 [cm-1]
     freq (    5) =       0.542928 [THz] =      18.110124 [cm-1]
     freq (    6) =       1.153392 [THz] =      38.473025 [cm-1]
     freq (    7) =       2.998708 [THz] =     100.026148 [cm-1]
     freq (    8) =       2.998708 [THz] =     100.026148 [cm-1]
     freq (    9) =       3.030618 [THz] =     101.090522 [cm-1]
     freq (   10) =       3.030618 [THz] =     101.090522 [cm-1]
     freq (   11) =       3.336649 [THz] =     111.298635 [cm-1]
     freq (   12) =       3.444948 [THz] =     114.911086 [cm-1]
     freq (   13) =       3.613215 [THz] =     120.523880 [cm-1]
     freq (   14) =       3.613215 [THz] =     120.523880 [cm-1]
     freq (   15) =       3.616453 [THz] =     120.631894 [cm-1]
     freq (   16) =       3.616453 [THz] =     120.631894 [cm-1]
     freq (   17) =       4.870596 [THz] =     162.465593 [cm-1]
     freq (   18) =       4.870596 [THz] =     162.465593 [cm-1]
     freq (   19) =       5.030998 [THz] =     167.816020 [cm-1]
     freq (   20) =       5.030998 [THz] =     167.816020 [cm-1]
     freq (   21) =       5.235651 [THz] =     174.642506 [cm-1]
     freq (   22) =       5.265264 [THz] =     175.630312 [cm-1]
     freq (   23) =       5.631526 [THz] =     187.847494 [cm-1]
     freq (   24) =       5.714100 [THz] =     190.601847 [cm-1]
     freq (   25) =       5.714100 [THz] =     190.601847 [cm-1]
     freq (   26) =       5.745200 [THz] =     191.639250 [cm-1]
     freq (   27) =       5.745200 [THz] =     191.639250 [cm-1]
     freq (   28) =       5.814086 [THz] =     193.937040 [cm-1]
     freq (   29) =       6.366682 [THz] =     212.369651 [cm-1]
     freq (   30) =       6.366682 [THz] =     212.369651 [cm-1]
     freq (   31) =       6.383554 [THz] =     212.932438 [cm-1]
     freq (   32) =       6.388011 [THz] =     213.081106 [cm-1]
     freq (   33) =       6.388011 [THz] =     213.081106 [cm-1]
     freq (   34) =       6.445557 [THz] =     215.000648 [cm-1]
     freq (   35) =       6.620734 [THz] =     220.843925 [cm-1]
     freq (   36) =       6.630973 [THz] =     221.185461 [cm-1]
     freq (   37) =       7.115687 [THz] =     237.353758 [cm-1]
     freq (   38) =       7.115687 [THz] =     237.353758 [cm-1]
     freq (   39) =       7.143069 [THz] =     238.267142 [cm-1]
     freq (   40) =       7.143069 [THz] =     238.267142 [cm-1]
     freq (   41) =       7.535791 [THz] =     251.366918 [cm-1]
     freq (   42) =       7.540058 [THz] =     251.509276 [cm-1]
     freq (   43) =       7.648895 [THz] =     255.139674 [cm-1]
     freq (   44) =       7.648895 [THz] =     255.139674 [cm-1]
     freq (   45) =       7.653469 [THz] =     255.292259 [cm-1]
     freq (   46) =       7.653469 [THz] =     255.292259 [cm-1]
     freq (   47) =       7.939708 [THz] =     264.840151 [cm-1]
     freq (   48) =       7.957296 [THz] =     265.426834 [cm-1]
     freq (   49) =       8.275214 [THz] =     276.031442 [cm-1]
     freq (   50) =       8.275214 [THz] =     276.031442 [cm-1]
     freq (   51) =       8.282725 [THz] =     276.281962 [cm-1]
     freq (   52) =       8.282725 [THz] =     276.281962 [cm-1]
     freq (   53) =       8.488958 [THz] =     283.161159 [cm-1]
     freq (   54) =       8.648302 [THz] =     288.476295 [cm-1]
     freq (   55) =       8.958705 [THz] =     298.830248 [cm-1]
     freq (   56) =       8.958705 [THz] =     298.830248 [cm-1]
     freq (   57) =       8.999286 [THz] =     300.183866 [cm-1]
     freq (   58) =       8.999286 [THz] =     300.183866 [cm-1]
[...]
     ./out/_ph0/Nb3Cl8.q_2/Nb3Cl8.save/charge-density

     Starting wfcs are    0 atomic +  114 random wfcs

     Band Structure Calculation
     Davidson diagonalization with overlap

     ethr =  5.26E-12,  avg # of iterations = 45.8

     End of band structure calculation

          k = 0.0000 0.0000 0.0000 (137531 PWs)   bands (ev):

   -55.5967 -55.5967 -55.4933 -55.4933 -55.4933 -55.4933 -32.0724 -32.0724
   -31.8312 -31.8312 -31.8311 -31.8311 -31.8095 -31.8094 -31.6710 -31.6710
   -31.6710 -31.6710 -31.4241 -31.4241 -31.2682 -31.2682 -31.2682 -31.2682
   -17.1749 -17.1541 -16.6977 -16.5480 -16.1308 -16.1154 -16.0623 -16.0623
   -15.9815 -15.9815 -15.7968 -15.7655 -15.4300 -15.4300 -15.4261 -15.4261
    -6.7651  -6.7651  -6.7006  -6.7006  -6.4819  -6.3100  -6.2241  -6.1890
    -5.8930  -5.8080  -5.8080  -5.7641  -5.7641  -5.5296  -5.3556  -5.3488
    -5.3189  -5.3189  -5.0098  -5.0098  -4.7439  -4.6661  -4.5170  -4.5170
    -4.5015  -4.5015  -4.1444  -4.0807  -4.0291  -4.0291  -3.9635  -3.9635
    -3.8028  -3.8028  -3.7206  -3.7062  -3.6686  -3.6686  -3.6120  -3.2776
    -3.0390  -3.0390  -2.9852  -2.9852  -2.4134  -2.4134  -2.4042  -2.4042
    -1.4200  -1.3214  -0.8225  -0.8225  -0.7859  -0.7859   0.4421   0.6378
     1.3234   1.3234   1.3256   1.3256   2.2280   2.2894   2.2894   2.3291
     2.3291   2.4373   2.6993   2.7125   2.7125   2.7293   2.7293   2.7747
     3.0049   3.0049

[...]

          k =-0.0962 0.1667 0.0000 (137449 PWs)   bands (ev):

[...]

          k =-0.1925-0.6667 0.0000 (137449 PWs)   bands (ev):

[...]

          k = 0.3849 0.0000 0.0000 (137535 PWs)   bands (ev):

   -55.5958 -55.5958 -55.4943 -55.4943 -55.4933 -55.4933 -32.0533 -32.0533
   -31.8273 -31.8273 -31.8165 -31.8165 -31.8044 -31.8043 -31.6767 -31.6766
   -31.6716 -31.6716 -31.4345 -31.4345 -31.2946 -31.2946 -31.2733 -31.2733
   -17.0961 -17.0889 -16.5995 -16.4675 -16.2653 -16.1839 -16.0806 -16.0550
   -16.0458 -15.9651 -15.7557 -15.7397 -15.5195 -15.5167 -15.4420 -15.4404
    -6.4571  -6.4464  -6.4382  -6.4184  -6.2900  -6.2087  -5.9408  -5.8679
    -5.8519  -5.7470  -5.6828  -5.6658  -5.4488  -5.4335  -5.3863  -5.3753
    -5.2734  -5.1748  -5.1343  -4.9846  -4.8664  -4.7408  -4.6634  -4.5801
    -4.5527  -4.4900  -4.4779  -4.4355  -4.3429  -4.2312  -4.1208  -4.0222
    -3.9276  -3.9073  -3.8961  -3.8253  -3.6444  -3.6163  -3.5717  -3.5257
    -3.3886  -3.2401  -3.1370  -3.0332  -2.9877  -2.9692  -2.5203  -2.4840
    -1.5438  -1.5130  -0.7987  -0.7758  -0.7162  -0.6969   0.2874   0.5494
     1.3650   1.3722   1.4267   1.4435   1.9707   2.0483   2.1007   2.1422
     2.1685   2.1901   2.3527   2.4581   2.6542   2.6710   2.6991   2.7149
     3.0104   3.0605

     the Fermi energy is     0.4605 ev

     Writing config to output data dir ./out/_ph0/Nb3Cl8.q_2/Nb3Cl8.save/ :
     XML data file

     Nb3Cl8

     bravais-lattice index     =            0
     lattice parameter (alat)  =      12.7288  a.u.
     unit-cell volume          =    8140.0419 (a.u.)^3
     number of atoms/cell      =           22
     number of atomic types    =            2
     kinetic-energy cut-off    =     100.0000  Ry
     charge density cut-off    =     400.0000  Ry
     convergence threshold     =      1.0E-16
     beta                      =       0.7000
     number of iterations used =            4
     Exchange-correlation= PBE
                           (   1   4   3   4   0   0   0)

     celldm(1)=   12.72878  celldm(2)=    0.00000  celldm(3)=    0.00000
     celldm(4)=    0.00000  celldm(5)=    0.00000  celldm(6)=    0.00000

     crystal axes: (cart. coord. in units of alat)
               a(1) = (  0.8660  0.5000  0.0000 )
               a(2) = ( -0.8660  0.5000  0.0000 )
               a(3) = (  0.0000  0.0000  4.5576 )

     reciprocal axes: (cart. coord. in units 2 pi/alat)
               b(1) = (  0.5774  1.0000 -0.0000 )
               b(2) = ( -0.5774  1.0000  0.0000 )
               b(3) = (  0.0000 -0.0000  0.2194 )

     Atoms inside the unit cell:

     Cartesian axes

     site n.  atom      mass           positions (alat units)
        1  Nb     92.9064   tau(    1) = (    0.23992   -0.00000   -0.46280  )
        2  Nb     92.9064   tau(    2) = (   -0.11996    0.20778   -0.46280  )
        3  Nb     92.9064   tau(    3) = (   -0.11996   -0.20778   -0.46280  )
        4  Nb     92.9064   tau(    4) = (   -0.23992    0.00000    0.46280  )
        5  Nb     92.9064   tau(    5) = (    0.11996   -0.20778    0.46280  )
        6  Nb     92.9064   tau(    6) = (    0.11996    0.20778    0.46280  )
        7  Cl     35.4527   tau(    7) = (    0.00000    0.00000   -0.73702  )
        8  Cl     35.4527   tau(    8) = (   -0.86393   -0.00000   -0.66622  )
        9  Cl     35.4527   tau(    9) = (   -0.43406   -0.24819   -0.66622  )
       10  Cl     35.4527   tau(   10) = (   -0.43406    0.24819   -0.66622  )
       11  Cl     35.4527   tau(   11) = (    0.57735    0.00000   -0.25993  )
       12  Cl     35.4527   tau(   12) = (   -0.28634    0.00000   -0.21902  )
       13  Cl     35.4527   tau(   13) = (    0.14317   -0.24798   -0.21902  )
       14  Cl     35.4527   tau(   14) = (    0.14317    0.24798   -0.21902  )
       15  Cl     35.4527   tau(   15) = (    0.28634   -0.00000    0.21902  )
       16  Cl     35.4527   tau(   16) = (   -0.14317    0.24798    0.21902  )
       17  Cl     35.4527   tau(   17) = (   -0.14317   -0.24798    0.21902  )
       18  Cl     35.4527   tau(   18) = (   -0.57735   -0.00000    0.25993  )
       19  Cl     35.4527   tau(   19) = (    0.86393    0.00000    0.66622  )
       20  Cl     35.4527   tau(   20) = (    0.43406    0.24819    0.66622  )
       21  Cl     35.4527   tau(   21) = (    0.43406   -0.24819    0.66622  )
       22  Cl     35.4527   tau(   22) = (    0.00000    0.00000    0.73702  )

     Computing dynamical matrix for
                    q = (   0.2886751  -0.5000000   0.0000000 )

      5 Sym.Ops. (with q -> -q+G )

     G cutoff = 1641.6235  (  34378 G-vectors)     FFT grid: ( 81, 81,375)

     number of k points=    26  Gaussian smearing, width (Ry)=  0.0037

     PseudoPot. # 1 for Nb read from file:
     /scratch-shared/mroesner/Nb3X8_cDFPT/pp/Nb_ONCV_PBE-1.2.upf
     MD5 check sum: 2c750ac0b6910ff4cf0ab5f6c4124a64
     Pseudo is Norm-conserving, Zval = 13.0
     Generated using ONCVPSP code by D. R. Hamann
     Using radial grid of  602 points,  6 beta functions with:
                l(1) =   0
                l(2) =   0
                l(3) =   1
                l(4) =   1
                l(5) =   2
                l(6) =   2

     PseudoPot. # 2 for Cl read from file:
     /scratch-shared/mroesner/Nb3X8_cDFPT/pp/Cl_ONCV_PBE-1.2.upf
     MD5 check sum: 0f993535b366f580ecbcdacce103c843
     Pseudo is Norm-conserving, Zval =  7.0
     Generated using ONCVPSP code by D. R. Hamann
     Using radial grid of  602 points,  4 beta functions with:
                l(1) =   0
                l(2) =   0
                l(3) =   1
                l(4) =   1

     Mode symmetry, C_2h (2/m)  point group:

     Atomic displacements:
     There are   66 irreducible representations

[...]

     Representation    66      1 modes -  To be done

     Message from routine init_vloc:
     Interpolation table for Vloc re-allocated

     Alpha used in Ewald sum =   2.8000

     Reading Grimme-D3 Hessian from file: ./out/Nb3Cl8.hess

     Number of cells replicated along each semiaxis:    9   9   2
     Number of cells in the supercell:      1805
     Number of atoms in the supercell:     39710
     Hessian allocation dimension:   7862580

     Grimme-D3 Hessian read

     Computing dynamical matrix for q:     0.288675   -0.500000    0.000000

     Writing Hessian on file dynamical.false.dat

     Dynamical matrix computed

[...]

     Representation #  66 mode #  66

     Self-consistent Calculation

[...]

      thresh= 1.661E-09 alpha_mix =  0.700 |ddv_scf|^2 =  4.319E-17

     End of self-consistent calculation

     Convergence has been achieved

     Number of q in the star =    3
     List of q in the star:
          1   0.288675135  -0.500000000   0.000000000
          2   0.577350269  -0.000000000   0.000000000
          3  -0.288675135  -0.500000000   0.000000000

     Diagonalizing the dynamical matrix

     q = (    0.288675135  -0.500000000   0.000000000 )

     freq (    1) =       1.654229 [THz] =      55.179142 [cm-1]
     freq (    2) =       1.948799 [THz] =      65.004928 [cm-1]
     freq (    3) =       1.998341 [THz] =      66.657481 [cm-1]
     freq (    4) =       2.047912 [THz] =      68.310990 [cm-1]
     freq (    5) =       2.305971 [THz] =      76.918910 [cm-1]
     freq (    6) =       2.334414 [THz] =      77.867671 [cm-1]
     freq (    7) =       2.861727 [THz] =      95.456944 [cm-1]
     freq (    8) =       2.895392 [THz] =      96.579883 [cm-1]
     freq (    9) =       3.001213 [THz] =     100.109675 [cm-1]
     freq (   10) =       3.045380 [THz] =     101.582930 [cm-1]
     freq (   11) =       3.325900 [THz] =     110.940070 [cm-1]
     freq (   12) =       3.356121 [THz] =     111.948161 [cm-1]
     freq (   13) =       3.935516 [THz] =     131.274692 [cm-1]
     freq (   14) =       3.970679 [THz] =     132.447606 [cm-1]
     freq (   15) =       3.985671 [THz] =     132.947686 [cm-1]
     freq (   16) =       3.993561 [THz] =     133.210863 [cm-1]
     freq (   17) =       4.593295 [THz] =     153.215813 [cm-1]
     freq (   18) =       4.723678 [THz] =     157.564922 [cm-1]
     freq (   19) =       4.771634 [THz] =     159.164577 [cm-1]
     freq (   20) =       4.842858 [THz] =     161.540353 [cm-1]
     freq (   21) =       4.941757 [THz] =     164.839254 [cm-1]
     freq (   22) =       4.959857 [THz] =     165.443010 [cm-1]
     freq (   23) =       5.013397 [THz] =     167.228919 [cm-1]
     freq (   24) =       5.298722 [THz] =     176.746337 [cm-1]
     freq (   25) =       5.299482 [THz] =     176.771705 [cm-1]
     freq (   26) =       5.342978 [THz] =     178.222571 [cm-1]
     freq (   27) =       5.643975 [THz] =     188.262738 [cm-1]
     freq (   28) =       5.681673 [THz] =     189.520202 [cm-1]
     freq (   29) =       6.388078 [THz] =     213.083357 [cm-1]
     freq (   30) =       6.418513 [THz] =     214.098562 [cm-1]
     freq (   31) =       6.423244 [THz] =     214.256343 [cm-1]
     freq (   32) =       6.431512 [THz] =     214.532140 [cm-1]
     freq (   33) =       6.708516 [THz] =     223.772015 [cm-1]
     freq (   34) =       6.717863 [THz] =     224.083777 [cm-1]
     freq (   35) =       6.764365 [THz] =     225.634928 [cm-1]
     freq (   36) =       6.782759 [THz] =     226.248474 [cm-1]
     freq (   37) =       6.842262 [THz] =     228.233278 [cm-1]
     freq (   38) =       6.893719 [THz] =     229.949721 [cm-1]
     freq (   39) =       7.005794 [THz] =     233.688121 [cm-1]
     freq (   40) =       7.046006 [THz] =     235.029470 [cm-1]
     freq (   41) =       7.297319 [THz] =     243.412367 [cm-1]
     freq (   42) =       7.454149 [THz] =     248.643642 [cm-1]
     freq (   43) =       7.616725 [THz] =     254.066591 [cm-1]
     freq (   44) =       7.620532 [THz] =     254.193577 [cm-1]
     freq (   45) =       7.620969 [THz] =     254.208159 [cm-1]
     freq (   46) =       7.813398 [THz] =     260.626896 [cm-1]
     freq (   47) =       7.826534 [THz] =     261.065070 [cm-1]
     freq (   48) =       8.063749 [THz] =     268.977722 [cm-1]
     freq (   49) =       8.079300 [THz] =     269.496440 [cm-1]
     freq (   50) =       8.341184 [THz] =     278.231951 [cm-1]
     freq (   51) =       8.448379 [THz] =     281.807592 [cm-1]
     freq (   52) =       8.476650 [THz] =     282.750597 [cm-1]
     freq (   53) =       8.478687 [THz] =     282.818549 [cm-1]
     freq (   54) =       8.485476 [THz] =     283.045009 [cm-1]
     freq (   55) =       9.042201 [THz] =     301.615344 [cm-1]
     freq (   56) =       9.085034 [THz] =     303.044117 [cm-1]
     freq (   57) =       9.478211 [THz] =     316.159090 [cm-1]
     freq (   58) =       9.485132 [THz] =     316.389931 [cm-1]
     freq (   59) =       9.890566 [THz] =     329.913775 [cm-1]
     freq (   60) =       9.990779 [THz] =     333.256531 [cm-1]
     freq (   61) =      10.293552 [THz] =     343.355936 [cm-1]
     freq (   62) =      10.408538 [THz] =     347.191469 [cm-1]
     freq (   63) =      10.767815 [THz] =     359.175663 [cm-1]
     freq (   64) =      10.897056 [THz] =     363.486648 [cm-1]
     freq (   65) =      11.001274 [THz] =     366.963008 [cm-1]
     freq (   66) =      11.225737 [THz] =     374.450276 [cm-1]

     Mode symmetry, C_2h (2/m)  point group:

     freq (   1-   1) =         55.2  [cm-1]   --> B_u
     freq (   2-   2) =         65.0  [cm-1]   --> A_g
     freq (   3-   3) =         66.7  [cm-1]   --> A_u
     freq (   4-   4) =         68.3  [cm-1]   --> B_g
     freq (   5-   5) =         76.9  [cm-1]   --> B_u
     freq (   6-   6) =         77.9  [cm-1]   --> A_g
     freq (   7-   7) =         95.5  [cm-1]   --> B_g
     freq (   8-   8) =         96.6  [cm-1]   --> A_u
     freq (   9-   9) =        100.1  [cm-1]   --> B_g
     freq (  10-  10) =        101.6  [cm-1]   --> A_u
     freq (  11-  11) =        110.9  [cm-1]   --> A_g
     freq (  12-  12) =        111.9  [cm-1]   --> B_u
     freq (  13-  13) =        131.3  [cm-1]   --> B_g
     freq (  14-  14) =        132.4  [cm-1]   --> B_u
     freq (  15-  15) =        132.9  [cm-1]   --> A_g
     freq (  16-  16) =        133.2  [cm-1]   --> A_u
     freq (  17-  17) =        153.2  [cm-1]   --> B_g
     freq (  18-  18) =        157.6  [cm-1]   --> A_g
     freq (  19-  19) =        159.2  [cm-1]   --> A_u
     freq (  20-  20) =        161.5  [cm-1]   --> B_u
     freq (  21-  21) =        164.8  [cm-1]   --> B_u
     freq (  22-  22) =        165.4  [cm-1]   --> A_g
     freq (  23-  23) =        167.2  [cm-1]   --> B_u
     freq (  24-  24) =        176.7  [cm-1]   --> A_g
     freq (  25-  25) =        176.8  [cm-1]   --> B_g
     freq (  26-  26) =        178.2  [cm-1]   --> A_u
     freq (  27-  27) =        188.3  [cm-1]   --> A_g
     freq (  28-  28) =        189.5  [cm-1]   --> B_u
     freq (  29-  29) =        213.1  [cm-1]   --> B_u
     freq (  30-  30) =        214.1  [cm-1]   --> B_g
     freq (  31-  31) =        214.3  [cm-1]   --> A_u
     freq (  32-  32) =        214.5  [cm-1]   --> A_g
     freq (  33-  33) =        223.8  [cm-1]   --> B_u
     freq (  34-  34) =        224.1  [cm-1]   --> A_g
     freq (  35-  35) =        225.6  [cm-1]   --> B_g
     freq (  36-  36) =        226.2  [cm-1]   --> B_u
     freq (  37-  37) =        228.2  [cm-1]   --> A_u
     freq (  38-  38) =        229.9  [cm-1]   --> A_g
     freq (  39-  39) =        233.7  [cm-1]   --> B_g
     freq (  40-  40) =        235.0  [cm-1]   --> A_u
     freq (  41-  41) =        243.4  [cm-1]   --> B_u
     freq (  42-  42) =        248.6  [cm-1]   --> A_g
     freq (  43-  43) =        254.1  [cm-1]   --> B_u
     freq (  44-  44) =        254.2  [cm-1]   --> B_g
     freq (  45-  45) =        254.2  [cm-1]   --> A_u
     freq (  46-  46) =        260.6  [cm-1]   --> A_g
     freq (  47-  47) =        261.1  [cm-1]   --> B_u
     freq (  48-  48) =        269.0  [cm-1]   --> A_u
     freq (  49-  49) =        269.5  [cm-1]   --> B_g
     freq (  50-  50) =        278.2  [cm-1]   --> A_g
     freq (  51-  51) =        281.8  [cm-1]   --> B_g
     freq (  52-  52) =        282.8  [cm-1]   --> A_g
     freq (  53-  53) =        282.8  [cm-1]   --> B_u
     freq (  54-  54) =        283.0  [cm-1]   --> A_u
     freq (  55-  55) =        301.6  [cm-1]   --> B_g
     freq (  56-  56) =        303.0  [cm-1]   --> A_u
     freq (  57-  57) =        316.2  [cm-1]   --> A_g
     freq (  58-  58) =        316.4  [cm-1]   --> B_u
     freq (  59-  59) =        329.9  [cm-1]   --> B_u
     freq (  60-  60) =        333.3  [cm-1]   --> A_g
     freq (  61-  61) =        343.4  [cm-1]   --> B_g
     freq (  62-  62) =        347.2  [cm-1]   --> A_u
     freq (  63-  63) =        359.2  [cm-1]   --> A_g
     freq (  64-  64) =        363.5  [cm-1]   --> B_u
     freq (  65-  65) =        367.0  [cm-1]   --> B_u
     freq (  66-  66) =        374.5  [cm-1]   --> A_g

     General routines

     Parallel routines

     INITIALIZATION:

     DYNAMICAL MATRIX:

                                        0.00s GPU  (    2574 calls)

                                        0.00s GPU  (     198 calls)

      General routines

      Additional routines
                                        0.00s GPU  (  114459 calls)
                                        0.00s GPU  (  114459 calls)

   This run was terminated on:  16:45:32   8May2025

   JOB DONE.