     Program PWSCF v.7.3.1 starts on  7May2025 at 21: 2:52

     Waiting for input...
     Reading input from standard input
Warning: card &CELL ignored
Warning: card / ignored
Warning: card &FCP ignored
Warning: card / ignored
Warning: card &RISM ignored
Warning: card / ignored

     Current dimensions of program PWSCF are:
     Max number of different atomic species (ntypx) = 10
     Max number of k-points (npk) =  40000
     Max angular momentum in pseudopotentials (lmaxx) =  4

     IMPORTANT: XC functional enforced from input :
     Exchange-correlation= PBE
                           (   1   4   3   4   0   0   0)
     Any further DFT definition will be discarded
     Please, verify this is what you really want

     Message from routine setup:
     using ibrav=0 with symmetry is DISCOURAGED, use correct ibrav instead

     K-points division:     npool     =      12
     R & G space division:  proc/nbgrp/npool/nimage =      32
     Subspace diagonalization in iterative solution of the eigenvalue problem:
     a serial algorithm will be used

     Message from routine divide_et_impera:
     suboptimal parallelization: some nodes have no k-points

     Using Slab Decomposition

     bravais-lattice index     =            0
     lattice parameter (alat)  =      12.7288  a.u.
     unit-cell volume          =    8140.0419 (a.u.)^3
     number of atoms/cell      =           22
     number of atomic types    =            2
     number of electrons       =       190.00
     number of Kohn-Sham states=          114
     kinetic-energy cutoff     =     100.0000  Ry
     charge density cutoff     =     400.0000  Ry
     scf convergence threshold =      1.0E-12
     mixing beta               =       0.7000
     number of iterations used =            8  plain     mixing
     Exchange-correlation= PBE
                           (   1   4   3   4   0   0   0)

     celldm(1)=  12.728776  celldm(2)=   0.000000  celldm(3)=   0.000000
     celldm(4)=   0.000000  celldm(5)=   0.000000  celldm(6)=   0.000000

     crystal axes: (cart. coord. in units of alat)
               a(1) = (   0.866025   0.500000   0.000000 )
               a(2) = (  -0.866025   0.500000   0.000000 )
               a(3) = (   0.000000   0.000000   4.557598 )

     reciprocal axes: (cart. coord. in units 2 pi/alat)
               b(1) = (  0.577350  1.000000 -0.000000 )
               b(2) = ( -0.577350  1.000000  0.000000 )
               b(3) = (  0.000000 -0.000000  0.219414 )

     PseudoPot. # 1 for Nb read from file:
     /scratch-shared/mroesner/Nb3X8_cDFPT/pp/Nb_ONCV_PBE-1.2.upf
     MD5 check sum: 2c750ac0b6910ff4cf0ab5f6c4124a64
     Pseudo is Norm-conserving, Zval = 13.0
     Generated using ONCVPSP code by D. R. Hamann
     Using radial grid of  602 points,  6 beta functions with:
                l(1) =   0
                l(2) =   0
                l(3) =   1
                l(4) =   1
                l(5) =   2
                l(6) =   2

     PseudoPot. # 2 for Cl read from file:
     /scratch-shared/mroesner/Nb3X8_cDFPT/pp/Cl_ONCV_PBE-1.2.upf
     MD5 check sum: 0f993535b366f580ecbcdacce103c843
     Pseudo is Norm-conserving, Zval =  7.0
     Generated using ONCVPSP code by D. R. Hamann
     Using radial grid of  602 points,  4 beta functions with:
                l(1) =   0
                l(2) =   0
                l(3) =   1
                l(4) =   1

     atomic species   valence    mass     pseudopotential
     Nb               13.00    92.90637     Nb( 1.00)
     Cl                7.00    35.45270     Cl( 1.00)

     12 Sym. Ops., with inversion, found

                                    s                        frac. trans.

      isym =  1     identity

 cryst.   s( 1) = (     1          0          0      )
                  (     0          1          0      )
                  (     0          0          1      )

 cart.    s( 1) = (  1.0000000  0.0000000  0.0000000 )
                  ( -0.0000000  1.0000000  0.0000000 )
                  (  0.0000000  0.0000000  1.0000000 )

      isym =  2     180 deg rotation - cart. axis [0,1,0]

[...]

      isym =  3     120 deg rotation - cryst. axis [0,0,1]

[...]

      isym =  6     180 deg rotation - cryst. axis [2,1,0]

[...]

      isym =  7     inversion

[...]

      isym =  8     inv. 180 deg rotation - cart. axis [0,1,0]

[...]

      isym =  9     inv. 120 deg rotation - cryst. axis [0,0,1]

 cryst.   s( 9) = (     0         -1          0      )
                  (     1          1          0      )
                  (     0          0         -1      )

 cart.    s( 9) = (  0.5000000  0.8660254  0.0000000 )
                  ( -0.8660254  0.5000000  0.0000000 )
                  (  0.0000000  0.0000000 -1.0000000 )

[...]

 cryst.   s(10) = (     1          1          0      )
                  (    -1          0          0      )
                  (     0          0         -1      )

 cart.    s(10) = (  0.5000000 -0.8660254  0.0000000 )
                  (  0.8660254  0.5000000  0.0000000 )
                  (  0.0000000  0.0000000 -1.0000000 )

[...]

      isym = 12     inv. 180 deg rotation - cryst. axis [2,1,0]

 cryst.   s(12) = (    -1          0          0      )
                  (     1          1          0      )
                  (     0          0          1      )

 cart.    s(12) = ( -0.5000000 -0.8660254  0.0000000 )
                  ( -0.8660254  0.5000000  0.0000000 )
                  (  0.0000000  0.0000000  1.0000000 )

   Cartesian axes

     site n.     atom                  positions (alat units)
         1        Nb     tau(   1) = (   0.2399243  -0.0000000  -0.4627999  )
         2        Nb     tau(   2) = (  -0.1199621   0.2077805  -0.4627999  )
         3        Nb     tau(   3) = (  -0.1199621  -0.2077805  -0.4627999  )
         4        Nb     tau(   4) = (  -0.2399243   0.0000000   0.4627999  )
         5        Nb     tau(   5) = (   0.1199621  -0.2077805   0.4627999  )
         6        Nb     tau(   6) = (   0.1199621   0.2077805   0.4627999  )
         7        Cl     tau(   7) = (   0.0000000   0.0000000  -0.7370175  )
         8        Cl     tau(   8) = (  -0.8639318  -0.0000000  -0.6662208  )
         9        Cl     tau(   9) = (  -0.4340595  -0.2481869  -0.6662208  )
        10        Cl     tau(  10) = (  -0.4340595   0.2481869  -0.6662208  )
        11        Cl     tau(  11) = (   0.5773503   0.0000000  -0.2599342  )
        12        Cl     tau(  12) = (  -0.2863406   0.0000000  -0.2190158  )
        13        Cl     tau(  13) = (   0.1431703  -0.2479782  -0.2190158  )
        14        Cl     tau(  14) = (   0.1431703   0.2479782  -0.2190158  )
        15        Cl     tau(  15) = (   0.2863406  -0.0000000   0.2190158  )
        16        Cl     tau(  16) = (  -0.1431703   0.2479782   0.2190158  )
        17        Cl     tau(  17) = (  -0.1431703  -0.2479782   0.2190158  )
        18        Cl     tau(  18) = (  -0.5773503  -0.0000000   0.2599342  )
        19        Cl     tau(  19) = (   0.8639318   0.0000000   0.6662208  )
        20        Cl     tau(  20) = (   0.4340595   0.2481869   0.6662208  )
        21        Cl     tau(  21) = (   0.4340595  -0.2481869   0.6662208  )
        22        Cl     tau(  22) = (   0.0000000   0.0000000   0.7370175  )

     DFT-D3 Dispersion Correction (no 3-body):
       Reference C6 values for interpolation:

         atom   Coordination number   C6
         Cl         0.000           184.69
         Cl         0.997           180.80
         Nb         0.000          2950.50
         Nb         1.954          1161.16
         Nb         2.922           857.79

       Values used:

         atom   Coordination number  R0_AB[au]  C6      C8
         Nb         8.254            3.647    857.79 111659.18
         Nb         8.254            3.647    857.79 111659.18
         Nb         8.254            3.647    857.79 111659.18
         Nb         8.254            3.647    857.79 111659.18
         Nb         8.254            3.647    857.79 111659.18
         Nb         8.254            3.647    857.79 111659.18
         Cl         3.137            2.933    180.80   7543.49
         Cl         2.249            2.933    180.80   7543.50
         Cl         2.249            2.933    180.80   7543.50
         Cl         2.249            2.933    180.80   7543.50
         Cl         3.105            2.933    180.80   7543.49
         Cl         2.302            2.933    180.80   7543.50
         Cl         2.302            2.933    180.80   7543.50
         Cl         2.302            2.933    180.80   7543.50
         Cl         2.302            2.933    180.80   7543.50
         Cl         2.302            2.933    180.80   7543.50
         Cl         2.302            2.933    180.80   7543.50
         Cl         3.105            2.933    180.80   7543.49
         Cl         2.249            2.933    180.80   7543.50
         Cl         2.249            2.933    180.80   7543.50
         Cl         2.249            2.933    180.80   7543.50
         Cl         3.137            2.933    180.80   7543.49

         Molecular C6 ( Ry / a.u.^6 ) =    150899.93

   Crystallographic axes

     site n.     atom                  positions (cryst. coord.)
         1        Nb     tau(   1) = (  0.1385203 -0.1385203 -0.1015447  )
         2        Nb     tau(   2) = (  0.1385203  0.2770407 -0.1015447  )
         3        Nb     tau(   3) = ( -0.2770407 -0.1385203 -0.1015447  )
         4        Nb     tau(   4) = ( -0.1385203  0.1385203  0.1015447  )
         5        Nb     tau(   5) = ( -0.1385203 -0.2770407  0.1015447  )
         6        Nb     tau(   6) = (  0.2770407  0.1385203  0.1015447  )
         7        Cl     tau(   7) = (  0.0000000  0.0000000 -0.1617118  )
         8        Cl     tau(   8) = ( -0.4987913  0.4987913 -0.1461780  )
         9        Cl     tau(   9) = ( -0.4987913  0.0024174 -0.1461780  )
        10        Cl     tau(  10) = ( -0.0024174  0.4987913 -0.1461780  )
        11        Cl     tau(  11) = (  0.3333333 -0.3333333 -0.0570332  )
        12        Cl     tau(  12) = ( -0.1653188  0.1653188 -0.0480551  )
        13        Cl     tau(  13) = ( -0.1653188 -0.3306376 -0.0480551  )
        14        Cl     tau(  14) = (  0.3306376  0.1653188 -0.0480551  )
        15        Cl     tau(  15) = (  0.1653188 -0.1653188  0.0480551  )
        16        Cl     tau(  16) = (  0.1653188  0.3306376  0.0480551  )
        17        Cl     tau(  17) = ( -0.3306376 -0.1653188  0.0480551  )
        18        Cl     tau(  18) = ( -0.3333333  0.3333333  0.0570332  )
        19        Cl     tau(  19) = (  0.4987913 -0.4987913  0.1461780  )
        20        Cl     tau(  20) = (  0.4987913 -0.0024174  0.1461780  )
        21        Cl     tau(  21) = (  0.0024174 -0.4987913  0.1461780  )
        22        Cl     tau(  22) = (  0.0000000  0.0000000  0.1617118  )

     number of k points=     7  Gaussian smearing, width (Ry)=  0.0037
                       cart. coord. in units 2pi/alat
        k(    1) = (   0.0000000   0.0000000   0.0000000), wk =   0.0555556
        k(    2) = (  -0.0962250   0.1666667   0.0000000), wk =   0.3333333
[...]
     atom    2 type  1   force =    -0.00006053    0.00010483   -0.00016048
     atom    3 type  1   force =    -0.00006053   -0.00010483   -0.00016048
     atom    4 type  1   force =    -0.00012105    0.00000000    0.00016048
     atom    5 type  1   force =     0.00006053   -0.00010483    0.00016048
     atom    6 type  1   force =     0.00006053    0.00010483    0.00016048
     atom    7 type  2   force =     0.00000000    0.00000000    0.00000136
     atom    8 type  2   force =     0.00000512    0.00000000    0.00008131
     atom    9 type  2   force =    -0.00000256    0.00000444    0.00008131
     atom   10 type  2   force =    -0.00000256   -0.00000444    0.00008131
     atom   11 type  2   force =     0.00000000   -0.00000000   -0.00000902
     atom   12 type  2   force =    -0.00003495    0.00000000    0.00002187
     atom   13 type  2   force =     0.00001748   -0.00003027    0.00002187
     atom   14 type  2   force =     0.00001748    0.00003027    0.00002187
     atom   15 type  2   force =     0.00003495   -0.00000000   -0.00002187
     atom   16 type  2   force =    -0.00001748    0.00003027   -0.00002187
     atom   17 type  2   force =    -0.00001748   -0.00003027   -0.00002187
     atom   18 type  2   force =    -0.00000000    0.00000000    0.00000902
     atom   19 type  2   force =    -0.00000512   -0.00000000   -0.00008131
     atom   20 type  2   force =     0.00000256   -0.00000444   -0.00008131
     atom   21 type  2   force =     0.00000256    0.00000444   -0.00008131
     atom   22 type  2   force =    -0.00000000    0.00000000   -0.00000136
     The non-local contrib.  to forces
     atom    1 type  1   force =    -0.23395290   -0.00000000   -0.03792507
     atom    2 type  1   force =     0.11697645   -0.20260916   -0.03792507
     atom    3 type  1   force =     0.11697645    0.20260916   -0.03792507
     atom    4 type  1   force =     0.23395290   -0.00000000    0.03792507
     atom    5 type  1   force =    -0.11697645    0.20260916    0.03792507
     atom    6 type  1   force =    -0.11697645   -0.20260916    0.03792507
     atom    7 type  2   force =    -0.00000000    0.00000000    0.43885239
     atom    8 type  2   force =    -0.17317271   -0.00000000    0.28087812
     atom    9 type  2   force =     0.08658635   -0.14997196    0.28087812
     atom   10 type  2   force =     0.08658635    0.14997196    0.28087812
     atom   11 type  2   force =     0.00000000    0.00000000   -0.35275274
     atom   12 type  2   force =     0.19949984    0.00000000   -0.28498943
     atom   13 type  2   force =    -0.09974992    0.17277193   -0.28498943
     atom   14 type  2   force =    -0.09974992   -0.17277193   -0.28498943
     atom   15 type  2   force =    -0.19949984    0.00000000    0.28498943
     atom   16 type  2   force =     0.09974992   -0.17277193    0.28498943
     atom   17 type  2   force =     0.09974992    0.17277193    0.28498943
     atom   18 type  2   force =    -0.00000000    0.00000000    0.35275274
     atom   19 type  2   force =     0.17317271   -0.00000000   -0.28087812
     atom   20 type  2   force =    -0.08658635    0.14997196   -0.28087812
     atom   21 type  2   force =    -0.08658635   -0.14997196   -0.28087812
     atom   22 type  2   force =     0.00000000    0.00000000   -0.43885239
     The ionic contribution  to forces
     atom    1 type  1   force =     9.36046969    0.00000000  -66.99893831
     atom    2 type  1   force =    -4.68023485    8.10640455  -66.99893830
     atom    3 type  1   force =    -4.68023485   -8.10640455  -66.99893830
     atom    4 type  1   force =    -9.36046969   -0.00000000   66.99893831
     atom    5 type  1   force =     4.68023485   -8.10640455   66.99893830
     atom    6 type  1   force =     4.68023485    8.10640455   66.99893830
     atom    7 type  2   force =    -0.00000000    0.00000000  -71.04244332
     atom    8 type  2   force =     3.53908713   -0.00000000  -59.94467664
     atom    9 type  2   force =    -1.76954356    3.06493936  -59.94467664
     atom   10 type  2   force =    -1.76954356   -3.06493936  -59.94467664
     atom   11 type  2   force =     0.00000000   -0.00000000  -10.41721359
     atom   12 type  2   force =    -6.81243592    0.00000000   -6.77526984
     atom   13 type  2   force =     3.40621796   -5.89974257   -6.77526985
     atom   14 type  2   force =     3.40621796    5.89974257   -6.77526985
     atom   15 type  2   force =     6.81243592    0.00000000    6.77526984
     atom   16 type  2   force =    -3.40621796    5.89974257    6.77526985
     atom   17 type  2   force =    -3.40621796   -5.89974257    6.77526985
     atom   18 type  2   force =    -0.00000000    0.00000000   10.41721359
     atom   19 type  2   force =    -3.53908713    0.00000000   59.94467664
     atom   20 type  2   force =     1.76954356   -3.06493936   59.94467664
     atom   21 type  2   force =     1.76954356    3.06493936   59.94467664
     atom   22 type  2   force =     0.00000000   -0.00000000   71.04244332
     The local contribution  to forces
     atom    1 type  1   force =    -9.12415882   -0.00000000   67.03415374
     atom    2 type  1   force =     4.56207947   -7.90175336   67.03415374
     atom    3 type  1   force =     4.56207947    7.90175336   67.03415374
     atom    4 type  1   force =     9.12415882    0.00000000  -67.03415374
     atom    5 type  1   force =    -4.56207947    7.90175336  -67.03415374
     atom    6 type  1   force =    -4.56207947   -7.90175336  -67.03415374
     atom    7 type  2   force =    -0.00000000    0.00000000   70.60237382
     atom    8 type  2   force =    -3.36645888    0.00000000   59.66239767
     atom    9 type  2   force =     1.68322945   -2.91543892   59.66239767
     atom   10 type  2   force =     1.68322945    2.91543892   59.66239767
     atom   11 type  2   force =     0.00000001   -0.00000000   10.76770683
     atom   12 type  2   force =     6.61384574   -0.00000000    7.05961296
     atom   13 type  2   force =    -3.30692288    5.72775844    7.05961296
     atom   14 type  2   force =    -3.30692288   -5.72775844    7.05961296
     atom   15 type  2   force =    -6.61384574    0.00000000   -7.05961296
     atom   16 type  2   force =     3.30692288   -5.72775844   -7.05961296
     atom   17 type  2   force =     3.30692288    5.72775844   -7.05961296
     atom   18 type  2   force =    -0.00000001    0.00000000  -10.76770683
     atom   19 type  2   force =     3.36645888   -0.00000000  -59.66239767
     atom   20 type  2   force =    -1.68322945    2.91543892  -59.66239767
     atom   21 type  2   force =    -1.68322945   -2.91543892  -59.66239767
     atom   22 type  2   force =     0.00000000   -0.00000000  -70.60237382
     The core correction contribution to forces
     atom    1 type  1   force =     0.00000000    0.00000000    0.00000000
     atom    2 type  1   force =     0.00000000    0.00000000    0.00000000
     atom    3 type  1   force =     0.00000000    0.00000000    0.00000000
     atom    4 type  1   force =     0.00000000    0.00000000    0.00000000
     atom    5 type  1   force =     0.00000000    0.00000000    0.00000000
     atom    6 type  1   force =     0.00000000    0.00000000    0.00000000
     atom    7 type  2   force =     0.00000000    0.00000000    0.00000000
     atom    8 type  2   force =     0.00000000    0.00000000    0.00000000
     atom    9 type  2   force =     0.00000000    0.00000000    0.00000000
     atom   10 type  2   force =     0.00000000    0.00000000    0.00000000
     atom   11 type  2   force =     0.00000000    0.00000000    0.00000000
     atom   12 type  2   force =     0.00000000    0.00000000    0.00000000
     atom   13 type  2   force =     0.00000000    0.00000000    0.00000000
     atom   14 type  2   force =     0.00000000    0.00000000    0.00000000
     atom   15 type  2   force =     0.00000000    0.00000000    0.00000000
     atom   16 type  2   force =     0.00000000    0.00000000    0.00000000
     atom   17 type  2   force =     0.00000000    0.00000000    0.00000000
     atom   18 type  2   force =     0.00000000    0.00000000    0.00000000
     atom   19 type  2   force =     0.00000000    0.00000000    0.00000000
     atom   20 type  2   force =     0.00000000    0.00000000    0.00000000
     atom   21 type  2   force =     0.00000000    0.00000000    0.00000000
     atom   22 type  2   force =     0.00000000    0.00000000    0.00000000
     The Hubbard contrib.    to forces
     atom    1 type  1   force =     0.00000000    0.00000000    0.00000000
     atom    2 type  1   force =     0.00000000    0.00000000    0.00000000
     atom    3 type  1   force =     0.00000000    0.00000000    0.00000000
     atom    4 type  1   force =     0.00000000    0.00000000    0.00000000
     atom    5 type  1   force =     0.00000000    0.00000000    0.00000000
     atom    6 type  1   force =     0.00000000    0.00000000    0.00000000
     atom    7 type  2   force =     0.00000000    0.00000000    0.00000000
     atom    8 type  2   force =     0.00000000    0.00000000    0.00000000
     atom    9 type  2   force =     0.00000000    0.00000000    0.00000000
     atom   10 type  2   force =     0.00000000    0.00000000    0.00000000
     atom   11 type  2   force =     0.00000000    0.00000000    0.00000000
     atom   12 type  2   force =     0.00000000    0.00000000    0.00000000
     atom   13 type  2   force =     0.00000000    0.00000000    0.00000000
     atom   14 type  2   force =     0.00000000    0.00000000    0.00000000
     atom   15 type  2   force =     0.00000000    0.00000000    0.00000000
     atom   16 type  2   force =     0.00000000    0.00000000    0.00000000
     atom   17 type  2   force =     0.00000000    0.00000000    0.00000000
     atom   18 type  2   force =     0.00000000    0.00000000    0.00000000
     atom   19 type  2   force =     0.00000000    0.00000000    0.00000000
     atom   20 type  2   force =     0.00000000    0.00000000    0.00000000
     atom   21 type  2   force =     0.00000000    0.00000000    0.00000000
     atom   22 type  2   force =     0.00000000    0.00000000    0.00000000
     The SCF correction term to forces
     atom    1 type  1   force =    -0.00000019   -0.00000000    0.00000005
     atom    2 type  1   force =     0.00000010   -0.00000017    0.00000005
     atom    3 type  1   force =     0.00000010    0.00000017    0.00000005
     atom    4 type  1   force =     0.00000019    0.00000000   -0.00000005
     atom    5 type  1   force =    -0.00000010    0.00000017   -0.00000005
     atom    6 type  1   force =    -0.00000010   -0.00000017   -0.00000005
     atom    7 type  2   force =     0.00000000    0.00000000    0.00000107
     atom    8 type  2   force =    -0.00000053    0.00000000    0.00000087
     atom    9 type  2   force =     0.00000026   -0.00000046    0.00000087
     atom   10 type  2   force =     0.00000026    0.00000046    0.00000087
     atom   11 type  2   force =     0.00000000    0.00000000   -0.00000052
     atom   12 type  2   force =     0.00000004   -0.00000000   -0.00000048
     atom   13 type  2   force =    -0.00000002    0.00000003   -0.00000048
     atom   14 type  2   force =    -0.00000002   -0.00000003   -0.00000048
     atom   15 type  2   force =    -0.00000004    0.00000000    0.00000048
     atom   16 type  2   force =     0.00000002   -0.00000003    0.00000048
     atom   17 type  2   force =     0.00000002    0.00000003    0.00000048
     atom   18 type  2   force =    -0.00000000    0.00000000    0.00000052
     atom   19 type  2   force =     0.00000053    0.00000000   -0.00000087
     atom   20 type  2   force =    -0.00000026    0.00000046   -0.00000087
     atom   21 type  2   force =    -0.00000026   -0.00000046   -0.00000087
     atom   22 type  2   force =     0.00000000    0.00000000   -0.00000107

     DFT-D3 dispersion contribution to forces:
     atom    1 type  1   force =    -0.00223669   -0.00000000    0.00254911
     atom    2 type  1   force =     0.00111834   -0.00193703    0.00254911
     atom    3 type  1   force =     0.00111834    0.00193703    0.00254911
     atom    4 type  1   force =     0.00223669    0.00000000   -0.00254911
     atom    5 type  1   force =    -0.00111834    0.00193703   -0.00254911
     atom    6 type  1   force =    -0.00111834   -0.00193703   -0.00254911
     atom    7 type  2   force =    -0.00000000    0.00000000    0.00121740
     atom    8 type  2   force =     0.00055011   -0.00000000    0.00148129
     atom    9 type  2   force =    -0.00027506    0.00047641    0.00148129
     atom   10 type  2   force =    -0.00027506   -0.00047641    0.00148129
     atom   11 type  2   force =     0.00000000   -0.00000000    0.00225100
     atom   12 type  2   force =    -0.00094466    0.00000000    0.00066867
     atom   13 type  2   force =     0.00047233   -0.00081810    0.00066867
     atom   14 type  2   force =     0.00047233    0.00081810    0.00066867
     atom   15 type  2   force =     0.00094466   -0.00000000   -0.00066867
     atom   16 type  2   force =    -0.00047233    0.00081810   -0.00066867
     atom   17 type  2   force =    -0.00047233   -0.00081810   -0.00066867
     atom   18 type  2   force =    -0.00000000    0.00000000   -0.00225100
     atom   19 type  2   force =    -0.00055011    0.00000000   -0.00148129
     atom   20 type  2   force =     0.00027506   -0.00047641   -0.00148129
     atom   21 type  2   force =     0.00027506    0.00047641   -0.00148129
     atom   22 type  2   force =     0.00000000   -0.00000000   -0.00121740

     Total force =     0.000541     Total SCF correction =     0.000003

     DFT-D3 dispersion Force =     0.010253

     Computing stress (Cartesian axis) and pressure

          total   stress  (Ry/bohr**3)                   (kbar)     P=        1.22
   0.00001282  -0.00000000   0.00000000            1.89       -0.00        0.00
  -0.00000000   0.00001282  -0.00000000           -0.00        1.89       -0.00
  -0.00000000   0.00000000  -0.00000068           -0.00        0.00       -0.10

     kinetic stress (kbar)   4688.76     -0.00     -0.00
                               -0.00   4688.76     -0.00
                                0.00      0.00   4646.95

     local   stress (kbar)-226228.87     -0.00      0.00
                               -0.00-226228.87     -0.00
                                0.00     -0.00 218310.88

     nonloc. stress (kbar)   4263.40      0.00     -0.00
                               -0.00   4263.40      0.00
                               -0.00      0.00   4276.93

     hartree stress (kbar) 111434.97      0.00     -0.00
                                0.00 111434.97      0.00
                               -0.00      0.00-108507.77

     exc-cor stress (kbar)   -992.43      0.00     -0.00
                                0.00   -992.43      0.00
                               -0.00      0.00   -994.21

     corecor stress (kbar)      0.00      0.00      0.00
                                0.00      0.00      0.00
                                0.00      0.00      0.00

     ewald   stress (kbar) 106840.85     -0.00     -0.00
                               -0.00 106840.85      0.00
                               -0.00      0.00-117728.98

     hubbard stress (kbar)      0.00      0.00      0.00
                                0.00      0.00      0.00
                                0.00      0.00      0.00

     DFT-D   stress (kbar)     -4.79      0.00      0.00
                                0.00     -4.79     -0.00
                                0.00     -0.00     -3.89

     XDM     stress (kbar)      0.00      0.00      0.00
                                0.00      0.00      0.00
                                0.00      0.00      0.00

     dft-nl  stress (kbar)      0.00      0.00      0.00
                                0.00      0.00      0.00
                                0.00      0.00      0.00

     TS-vdW  stress (kbar)      0.00      0.00      0.00
                                0.00      0.00      0.00
                                0.00      0.00      0.00

     MDB     stress (kbar)      0.00      0.00      0.00
                                0.00      0.00      0.00
                                0.00      0.00      0.00

     3D-RISM stress (kbar)      0.00      0.00      0.00
                                0.00      0.00      0.00
                                0.00      0.00      0.00

     Writing all to output data dir ./out/Nb3Cl8.save/ :
     XML data file, charge density, pseudopotentials, collected wavefunctions

     General routines

     Parallel routines

   This run was terminated on:  21: 4:40   7May2025

   JOB DONE.