     Program PHONON v.7.3.1 starts on  8May2025 at  9:33: 2

     Waiting for input...
     Reading input from standard input
     Run is not recoverable starting from scratch

     Reading xml data from directory:

     ./out/Nb3Cl8.save/

     K-points division:     npool     =      12
     R & G space division:  proc/nbgrp/npool/nimage =      32
     Subspace diagonalization in iterative solution of the eigenvalue problem:
     a serial algorithm will be used

     IMPORTANT: XC functional enforced from input :
     Exchange-correlation= PBE
                           (   1   4   3   4   0   0   0)
     Any further DFT definition will be discarded
     Please, verify this is what you really want

     Using Slab Decomposition

     Message from routine divide_et_impera:
     suboptimal parallelization: some nodes have no k-points
     Reading collected, re-writing distributed wavefunctions in ./out/

     Dynamical matrices for ( 2, 2, 1)  uniform grid of q-points
     (   2 q-points):
       N         xq(1)         xq(2)         xq(3)
       1   0.000000000   0.000000000   0.000000000
       2   0.288675135  -0.500000000   0.000000000

     Number and degeneracy of irreps per q-point
       N         xq(1)         xq(2)         xq(3)   N irreps
       1   0.000000000   0.000000000   0.000000000      22
        1   1   1   1   1   1   1   1   1   1   1   2   2   2   2   2   2   2
   2   2   2   2
       2   0.288675135  -0.500000000   0.000000000      33
     No degeneracy

     Saving dvscf to file. Distribute only q points, not irreducible representations.

     Calculation of q =    0.0000000   0.0000000   0.0000000

     Nb3Cl8

     bravais-lattice index     =            0
     lattice parameter (alat)  =      12.7288  a.u.
     unit-cell volume          =    8140.0419 (a.u.)^3
     number of atoms/cell      =           11
     number of atomic types    =            2
     kinetic-energy cut-off    =     100.0000  Ry
     charge density cut-off    =     400.0000  Ry
     convergence threshold     =      1.0E-16
     beta                      =       0.7000
     number of iterations used =            4
     Exchange-correlation= PBE
                           (   1   4   3   4   0   0   0)

     celldm(1)=   12.72878  celldm(2)=    0.00000  celldm(3)=    0.00000
     celldm(4)=    0.00000  celldm(5)=    0.00000  celldm(6)=    0.00000

     crystal axes: (cart. coord. in units of alat)
               a(1) = (  0.8660  0.5000  0.0000 )
               a(2) = ( -0.8660  0.5000  0.0000 )
               a(3) = (  0.0000  0.0000  4.5576 )

     reciprocal axes: (cart. coord. in units 2 pi/alat)
               b(1) = (  0.5774  1.0000 -0.0000 )
               b(2) = ( -0.5774  1.0000  0.0000 )
               b(3) = (  0.0000 -0.0000  0.2194 )

     Atoms inside the unit cell:

     Cartesian axes

     site n.  atom      mass           positions (alat units)
        1  Nb     92.9064   tau(    1) = (   -0.24024    0.00000    0.46409  )
        2  Nb     92.9064   tau(    2) = (    0.12012   -0.20806    0.46409  )
        3  Nb     92.9064   tau(    3) = (    0.12012    0.20806    0.46409  )
        4  Cl     35.4527   tau(    4) = (    0.28504   -0.00000    0.21766  )
        5  Cl     35.4527   tau(    5) = (   -0.14252    0.24686    0.21766  )
        6  Cl     35.4527   tau(    6) = (   -0.14252   -0.24686    0.21766  )
        7  Cl     35.4527   tau(    7) = (   -0.57735   -0.00000    0.26094  )
        8  Cl     35.4527   tau(    8) = (    0.86305   -0.00000    0.66550  )
        9  Cl     35.4527   tau(    9) = (    0.43450    0.24743    0.66550  )
       10  Cl     35.4527   tau(   10) = (    0.43450   -0.24743    0.66550  )
       11  Cl     35.4527   tau(   11) = (    0.00000    0.00000    0.73837  )

     Computing dynamical matrix for
                    q = (   0.0000000   0.0000000   0.0000000 )

      7 Sym.Ops. (with q -> -q+G )

     G cutoff = 1641.6235  (  34378 G-vectors)     FFT grid: ( 81, 81,375)

     number of k points=     7  Gaussian smearing, width (Ry)=  0.0037

     PseudoPot. # 1 for Nb read from file:
     /scratch-shared/mroesner/Nb3X8_cDFPT/pp/Nb_ONCV_PBE-1.2.upf
     MD5 check sum: 2c750ac0b6910ff4cf0ab5f6c4124a64
     Pseudo is Norm-conserving, Zval = 13.0
     Generated using ONCVPSP code by D. R. Hamann
     Using radial grid of  602 points,  6 beta functions with:
                l(1) =   0
                l(2) =   0
                l(3) =   1
                l(4) =   1
                l(5) =   2
                l(6) =   2

     PseudoPot. # 2 for Cl read from file:
     /scratch-shared/mroesner/Nb3X8_cDFPT/pp/Cl_ONCV_PBE-1.2.upf
     MD5 check sum: 0f993535b366f580ecbcdacce103c843
     Pseudo is Norm-conserving, Zval =  7.0
     Generated using ONCVPSP code by D. R. Hamann
     Using radial grid of  602 points,  4 beta functions with:
                l(1) =   0
                l(2) =   0
                l(3) =   1
                l(4) =   1

     Mode symmetry, C_3v (3m)   point group:

     Atomic displacements:
     There are   22 irreducible representations

     Representation     1      1 modes -  To be done

[...]

     Alpha used in Ewald sum =   2.8000

     Reading Grimme-D3 Hessian from file: ./out/Nb3Cl8.hess

     Number of cells replicated along each semiaxis:    9   9   2
     Number of cells in the supercell:      1805
     Number of atoms in the supercell:     19855
     Hessian allocation dimension:   1965645

     Grimme-D3 Hessian read

     Computing dynamical matrix for q:     0.000000    0.000000    0.000000

     Writing Hessian on file dynamical.false.dat

     Dynamical matrix computed

     Representation #   1 mode #   1

     Self-consistent Calculation

     Pert. #  1: Fermi energy shift (Ry) =     1.2919E-01     1.0588E-22

      thresh= 1.000E-02 alpha_mix =  0.700 |ddv_scf|^2 =  3.989E-08

[...]

     End of self-consistent calculation

     Convergence has been achieved

[...]

     Representation #  12 modes #  12  13

[...]

     Representation #  22 modes #  32  33

[...]

     Pert. #  1: Fermi energy shift (Ry) =    -7.2280E-20     2.9894E-44
     Pert. #  2: Fermi energy shift (Ry) =     3.6140E-20     8.9683E-44

[...]

     Number of q in the star =    1
     List of q in the star:
          1   0.000000000   0.000000000   0.000000000

     Diagonalizing the dynamical matrix

     q = (    0.000000000   0.000000000   0.000000000 )

     freq (    1) =      -0.180269 [THz] =      -6.013128 [cm-1]
     freq (    2) =       0.044088 [THz] =       1.470618 [cm-1]
     freq (    3) =       0.044088 [THz] =       1.470618 [cm-1]
     freq (    4) =       2.728467 [THz] =      91.011859 [cm-1]
     freq (    5) =       2.728467 [THz] =      91.011859 [cm-1]
     freq (    6) =       3.289609 [THz] =     109.729539 [cm-1]
     freq (    7) =       3.517039 [THz] =     117.315780 [cm-1]
     freq (    8) =       3.517039 [THz] =     117.315780 [cm-1]
     freq (    9) =       4.852703 [THz] =     161.868759 [cm-1]
     freq (   10) =       4.852703 [THz] =     161.868759 [cm-1]
     freq (   11) =       5.259763 [THz] =     175.446794 [cm-1]
     freq (   12) =       5.573877 [THz] =     185.924514 [cm-1]
     freq (   13) =       5.697048 [THz] =     190.033076 [cm-1]
     freq (   14) =       5.697048 [THz] =     190.033076 [cm-1]
     freq (   15) =       6.331459 [THz] =     211.194726 [cm-1]
     freq (   16) =       6.367624 [THz] =     212.401081 [cm-1]
     freq (   17) =       6.367624 [THz] =     212.401081 [cm-1]
     freq (   18) =       6.769677 [THz] =     225.812132 [cm-1]
     freq (   19) =       7.018738 [THz] =     234.119902 [cm-1]
     freq (   20) =       7.018738 [THz] =     234.119902 [cm-1]
     freq (   21) =       7.575537 [THz] =     252.692709 [cm-1]
     freq (   22) =       7.693079 [THz] =     256.613488 [cm-1]
     freq (   23) =       7.693079 [THz] =     256.613488 [cm-1]
     freq (   24) =       7.793631 [THz] =     259.967560 [cm-1]
     freq (   25) =       8.221221 [THz] =     274.230417 [cm-1]
     freq (   26) =       8.221221 [THz] =     274.230417 [cm-1]
     freq (   27) =       8.630631 [THz] =     287.886853 [cm-1]
     freq (   28) =       8.894637 [THz] =     296.693170 [cm-1]
     freq (   29) =       8.894637 [THz] =     296.693170 [cm-1]
     freq (   30) =      10.051757 [THz] =     335.290536 [cm-1]
     freq (   31) =      10.393506 [THz] =     346.690044 [cm-1]
     freq (   32) =      10.393506 [THz] =     346.690044 [cm-1]
     freq (   33) =      11.705295 [THz] =     390.446605 [cm-1]

     Mode symmetry, C_3v (3m)   point group:

     freq (   1-   1) =         -6.0  [cm-1]   --> A_1  L_1        I+R
     freq (   2-   3) =          1.5  [cm-1]   --> E    L_3        I+R
     freq (   4-   5) =         91.0  [cm-1]   --> E    L_3        I+R
     freq (   6-   6) =        109.7  [cm-1]   --> A_2  L_2
     freq (   7-   8) =        117.3  [cm-1]   --> E    L_3        I+R
     freq (   9-  10) =        161.9  [cm-1]   --> E    L_3        I+R
     freq (  11-  11) =        175.4  [cm-1]   --> A_1  L_1        I+R
     freq (  12-  12) =        185.9  [cm-1]   --> A_1  L_1        I+R
     freq (  13-  14) =        190.0  [cm-1]   --> E    L_3        I+R
     freq (  15-  15) =        211.2  [cm-1]   --> A_1  L_1        I+R
     freq (  16-  17) =        212.4  [cm-1]   --> E    L_3        I+R
     freq (  18-  18) =        225.8  [cm-1]   --> A_2  L_2
     freq (  19-  20) =        234.1  [cm-1]   --> E    L_3        I+R
     freq (  21-  21) =        252.7  [cm-1]   --> A_1  L_1        I+R
     freq (  22-  23) =        256.6  [cm-1]   --> E    L_3        I+R
     freq (  24-  24) =        260.0  [cm-1]   --> A_2  L_2
     freq (  25-  26) =        274.2  [cm-1]   --> E    L_3        I+R
     freq (  27-  27) =        287.9  [cm-1]   --> A_1  L_1        I+R
     freq (  28-  29) =        296.7  [cm-1]   --> E    L_3        I+R
     freq (  30-  30) =        335.3  [cm-1]   --> A_1  L_1        I+R
     freq (  31-  32) =        346.7  [cm-1]   --> E    L_3        I+R
     freq (  33-  33) =        390.4  [cm-1]   --> A_1  L_1        I+R

     Calculation of q =    0.2886751  -0.5000000   0.0000000

     Using Slab Decomposition

     Title:
     Nb3Cl8

     bravais-lattice index     =            0
     lattice parameter (alat)  =      12.7288  a.u.
     unit-cell volume          =    8140.0419 (a.u.)^3
     number of atoms/cell      =           11
     number of atomic types    =            2
     number of electrons       =        95.00
     number of Kohn-Sham states=           58
     kinetic-energy cutoff     =     100.0000  Ry
     charge density cutoff     =     400.0000  Ry
     Exchange-correlation= PBE
                           (   1   4   3   4   0   0   0)

[...]

     atomic species   valence    mass     pseudopotential
     Nb               13.00    92.90637     Nb( 1.00)
     Cl                7.00    35.45270     Cl( 1.00)

      6 Sym. Ops. (no inversion) found

[...]

     site n.     atom                  positions (alat units)
         1        Nb     tau(   1) = (  -0.2402445   0.0000000   0.4640943  )
         2        Nb     tau(   2) = (   0.1201223  -0.2080579   0.4640943  )
         3        Nb     tau(   3) = (   0.1201223   0.2080579   0.4640943  )
         4        Cl     tau(   4) = (   0.2850443  -0.0000000   0.2176560  )
         5        Cl     tau(   5) = (  -0.1425221   0.2468556   0.2176560  )
         6        Cl     tau(   6) = (  -0.1425221  -0.2468556   0.2176560  )
         7        Cl     tau(   7) = (  -0.5773503  -0.0000000   0.2609354  )
         8        Cl     tau(   8) = (   0.8630545  -0.0000000   0.6655026  )
         9        Cl     tau(   9) = (   0.4344982   0.2474271   0.6655026  )
        10        Cl     tau(  10) = (   0.4344982  -0.2474271   0.6655026  )
        11        Cl     tau(  11) = (   0.0000000   0.0000000   0.7383673  )

     DFT-D3 Dispersion Correction (no 3-body):
       Reference C6 values for interpolation:

         atom   Coordination number   C6
         Cl         0.000           184.69
         Cl         0.997           180.80
         Nb         0.000          2950.50
         Nb         1.954          1161.16
         Nb         2.922           857.79

       Values used:

         atom   Coordination number  R0_AB[au]  C6      C8
         Nb         8.244            3.647    857.79 111659.18
         Nb         8.244            3.647    857.79 111659.18
         Nb         8.244            3.647    857.79 111659.18
         Cl         2.244            2.933    180.80   7543.50
         Cl         2.244            2.933    180.80   7543.50
         Cl         2.244            2.933    180.80   7543.50
         Cl         3.076            2.933    180.80   7543.49
         Cl         2.251            2.933    180.80   7543.50
         Cl         2.251            2.933    180.80   7543.50
         Cl         2.251            2.933    180.80   7543.50
         Cl         3.133            2.933    180.80   7543.49

         Molecular C6 ( Ry / a.u.^6 ) =     37724.98

     number of k points=    26  Gaussian smearing, width (Ry)=  0.0037
                       cart. coord. in units 2pi/alat
        k(    1) = (   0.0000000   0.0000000   0.0000000), wk =   0.0555556
        k(    2) = (   0.2886751  -0.5000000   0.0000000), wk =   0.0000000
        k(    3) = (  -0.0962250   0.1666667   0.0000000), wk =   0.1111111
        k(    4) = (   0.1924501  -0.3333333   0.0000000), wk =   0.0000000
        k(    5) = (  -0.1924501   0.3333333   0.0000000), wk =   0.1111111
        k(    6) = (   0.0962250  -0.1666667   0.0000000), wk =   0.0000000
        k(    7) = (   0.2886751  -0.5000000   0.0000000), wk =   0.0555556
        k(    8) = (   0.5773503  -1.0000000   0.0000000), wk =   0.0000000
        k(    9) = (   0.0000000   0.3333333   0.0000000), wk =   0.2222222
        k(   10) = (   0.2886751  -0.1666667   0.0000000), wk =   0.0000000
        k(   11) = (  -0.0962250   0.5000000   0.0000000), wk =   0.2222222
        k(   12) = (   0.1924501   0.0000000   0.0000000), wk =   0.0000000
        k(   13) = (   0.0000000   0.6666667   0.0000000), wk =   0.1111111
        k(   14) = (   0.2886751   0.1666667   0.0000000), wk =   0.0000000
        k(   15) = (   0.1924501  -0.0000000   0.0000000), wk =   0.2222222
        k(   16) = (   0.4811252  -0.5000000   0.0000000), wk =   0.0000000
        k(   17) = (   0.3849002  -0.0000000   0.0000000), wk =   0.2222222
        k(   18) = (   0.6735753  -0.5000000   0.0000000), wk =   0.0000000
        k(   19) = (  -0.5773503  -0.0000000   0.0000000), wk =   0.1111111
        k(   20) = (  -0.2886751  -0.5000000   0.0000000), wk =   0.0000000
        k(   21) = (   0.2886751   0.1666667   0.0000000), wk =   0.1111111
        k(   22) = (   0.5773503  -0.3333333   0.0000000), wk =   0.0000000
        k(   23) = (   0.4811252  -0.1666667   0.0000000), wk =   0.2222222
        k(   24) = (   0.7698004  -0.6666667   0.0000000), wk =   0.0000000
        k(   25) = (   0.4811252   0.1666667   0.0000000), wk =   0.2222222
        k(   26) = (   0.7698004  -0.3333333   0.0000000), wk =   0.0000000

     The potential is recalculated from file :
     ./out/_ph0/Nb3Cl8.q_2/Nb3Cl8.save/charge-density

     Starting wfcs are    0 atomic +   58 random wfcs

     Band Structure Calculation
     Davidson diagonalization with overlap

     ethr =  1.05E-11,  avg # of iterations = 38.2

     End of band structure calculation

          k = 0.0000 0.0000 0.0000 (137531 PWs)   bands (ev):

   -58.1002 -57.9985 -57.9985 -34.5685 -34.3289 -34.3289 -34.3121 -34.1756
   -34.1756 -33.9277 -33.7734 -33.7734 -19.6599 -19.0643 -18.5697 -18.4244
   -18.4244 -18.3093 -17.9676 -17.9676  -9.1976  -9.1976  -8.8559  -8.6606
    -8.2271  -8.2271  -8.0724  -7.9128  -7.6178  -7.6178  -7.1720  -7.0082
    -7.0082  -6.5958  -6.5059  -6.5059  -6.2017  -6.2017  -6.1340  -6.0555
    -5.4361  -5.4361  -4.9469  -4.9469  -3.8535  -3.2879  -3.2879  -1.9650
    -1.1760  -1.1760  -0.1927  -0.1927  -0.1697   0.2197   0.2277   0.2277
     0.5634   0.5634

[...]

          k =-0.0962 0.1667 0.0000 (137449 PWs)   bands (ev):

[...]

          k =-0.2887-0.5000 0.0000 (137556 PWs)   bands (ev):

[...]

          k = 0.7698-0.3333 0.0000 (137449 PWs)   bands (ev):

   -58.0990 -57.9998 -57.9985 -34.5422 -34.3215 -34.3112 -34.3051 -34.1825
   -34.1773 -33.9418 -33.8065 -33.7830 -19.5715 -18.9183 -18.6768 -18.5330
   -18.3880 -18.2671 -18.1090 -17.9753  -8.8972  -8.7501  -8.5242  -8.2857
    -8.2046  -7.9631  -7.8532  -7.7340  -7.6996  -7.5498  -7.3924  -7.2110
    -7.1227  -6.9564  -6.8253  -6.6826  -6.5206  -6.2855  -6.1412  -6.1005
    -5.8717  -5.6770  -5.5024  -5.1588  -4.0319  -3.2847  -3.1722  -2.1299
    -1.1919  -0.9473  -0.5338  -0.4179  -0.3112  -0.2000  -0.0065   0.2238
     0.5559   0.7799

     the Fermi energy is    -2.1025 ev

     Writing config to output data dir ./out/_ph0/Nb3Cl8.q_2/Nb3Cl8.save/ :
     XML data file

     Nb3Cl8

     bravais-lattice index     =            0
     lattice parameter (alat)  =      12.7288  a.u.
     unit-cell volume          =    8140.0419 (a.u.)^3
     number of atoms/cell      =           11
     number of atomic types    =            2
     kinetic-energy cut-off    =     100.0000  Ry
     charge density cut-off    =     400.0000  Ry
     convergence threshold     =      1.0E-16
     beta                      =       0.7000
     number of iterations used =            4
     Exchange-correlation= PBE
                           (   1   4   3   4   0   0   0)

     celldm(1)=   12.72878  celldm(2)=    0.00000  celldm(3)=    0.00000
     celldm(4)=    0.00000  celldm(5)=    0.00000  celldm(6)=    0.00000

     crystal axes: (cart. coord. in units of alat)
               a(1) = (  0.8660  0.5000  0.0000 )
               a(2) = ( -0.8660  0.5000  0.0000 )
               a(3) = (  0.0000  0.0000  4.5576 )

     reciprocal axes: (cart. coord. in units 2 pi/alat)
               b(1) = (  0.5774  1.0000 -0.0000 )
               b(2) = ( -0.5774  1.0000  0.0000 )
               b(3) = (  0.0000 -0.0000  0.2194 )

     Atoms inside the unit cell:

     Cartesian axes

     site n.  atom      mass           positions (alat units)
        1  Nb     92.9064   tau(    1) = (   -0.24024    0.00000    0.46409  )
        2  Nb     92.9064   tau(    2) = (    0.12012   -0.20806    0.46409  )
        3  Nb     92.9064   tau(    3) = (    0.12012    0.20806    0.46409  )
        4  Cl     35.4527   tau(    4) = (    0.28504   -0.00000    0.21766  )
        5  Cl     35.4527   tau(    5) = (   -0.14252    0.24686    0.21766  )
        6  Cl     35.4527   tau(    6) = (   -0.14252   -0.24686    0.21766  )
        7  Cl     35.4527   tau(    7) = (   -0.57735   -0.00000    0.26094  )
        8  Cl     35.4527   tau(    8) = (    0.86305   -0.00000    0.66550  )
        9  Cl     35.4527   tau(    9) = (    0.43450    0.24743    0.66550  )
       10  Cl     35.4527   tau(   10) = (    0.43450   -0.24743    0.66550  )
       11  Cl     35.4527   tau(   11) = (    0.00000    0.00000    0.73837  )

     Computing dynamical matrix for
                    q = (   0.2886751  -0.5000000   0.0000000 )

      3 Sym.Ops. (with q -> -q+G )

     G cutoff = 1641.6235  (  34378 G-vectors)     FFT grid: ( 81, 81,375)

     number of k points=    26  Gaussian smearing, width (Ry)=  0.0037

     PseudoPot. # 1 for Nb read from file:
     /scratch-shared/mroesner/Nb3X8_cDFPT/pp/Nb_ONCV_PBE-1.2.upf
     MD5 check sum: 2c750ac0b6910ff4cf0ab5f6c4124a64
     Pseudo is Norm-conserving, Zval = 13.0
     Generated using ONCVPSP code by D. R. Hamann
     Using radial grid of  602 points,  6 beta functions with:
                l(1) =   0
                l(2) =   0
                l(3) =   1
                l(4) =   1
                l(5) =   2
                l(6) =   2

     PseudoPot. # 2 for Cl read from file:
     /scratch-shared/mroesner/Nb3X8_cDFPT/pp/Cl_ONCV_PBE-1.2.upf
     MD5 check sum: 0f993535b366f580ecbcdacce103c843
     Pseudo is Norm-conserving, Zval =  7.0
     Generated using ONCVPSP code by D. R. Hamann
     Using radial grid of  602 points,  4 beta functions with:
                l(1) =   0
                l(2) =   0
                l(3) =   1
                l(4) =   1

     Mode symmetry, C_s (m)     point group:

     Atomic displacements:
     There are   33 irreducible representations

[...]

     Representation    33      1 modes -  To be done

     Message from routine init_vloc:
     Interpolation table for Vloc re-allocated

     Alpha used in Ewald sum =   2.8000

     Reading Grimme-D3 Hessian from file: ./out/Nb3Cl8.hess

     Number of cells replicated along each semiaxis:    9   9   2
     Number of cells in the supercell:      1805
     Number of atoms in the supercell:     19855
     Hessian allocation dimension:   1965645

     Grimme-D3 Hessian read

     Computing dynamical matrix for q:     0.288675   -0.500000    0.000000

     Writing Hessian on file dynamical.false.dat

     Dynamical matrix computed

[...]

     Representation #  33 mode #  33

     Self-consistent Calculation

[...]

      thresh= 2.441E-09 alpha_mix =  0.700 |ddv_scf|^2 =  8.932E-19

     End of self-consistent calculation

     Convergence has been achieved

     Number of q in the star =    3
     List of q in the star:
          1   0.288675135  -0.500000000   0.000000000
          2  -0.577350269  -0.000000000   0.000000000
          3   0.288675135   0.500000000   0.000000000

     Diagonalizing the dynamical matrix

     q = (    0.288675135  -0.500000000   0.000000000 )

     freq (    1) =       1.569580 [THz] =      52.355552 [cm-1]
     freq (    2) =       1.980205 [THz] =      66.052518 [cm-1]
     freq (    3) =       2.107485 [THz] =      70.298126 [cm-1]
     freq (    4) =       2.614775 [THz] =      87.219496 [cm-1]
     freq (    5) =       2.997718 [THz] =      99.993102 [cm-1]
     freq (    6) =       3.336837 [THz] =     111.304912 [cm-1]
     freq (    7) =       3.871799 [THz] =     129.149320 [cm-1]
     freq (    8) =       3.891452 [THz] =     129.804873 [cm-1]
     freq (    9) =       4.559125 [THz] =     152.076040 [cm-1]
     freq (   10) =       4.569625 [THz] =     152.426273 [cm-1]
     freq (   11) =       4.741208 [THz] =     158.149675 [cm-1]
     freq (   12) =       4.972992 [THz] =     165.881167 [cm-1]
     freq (   13) =       5.235438 [THz] =     174.635425 [cm-1]
     freq (   14) =       5.564671 [THz] =     185.617434 [cm-1]
     freq (   15) =       6.362518 [THz] =     212.230771 [cm-1]
     freq (   16) =       6.407265 [THz] =     213.723348 [cm-1]
     freq (   17) =       6.647870 [THz] =     221.749088 [cm-1]
     freq (   18) =       6.672372 [THz] =     222.566376 [cm-1]
     freq (   19) =       6.747093 [THz] =     225.058810 [cm-1]
     freq (   20) =       7.121381 [THz] =     237.543709 [cm-1]
     freq (   21) =       7.239590 [THz] =     241.486720 [cm-1]
     freq (   22) =       7.540305 [THz] =     251.517501 [cm-1]
     freq (   23) =       7.677492 [THz] =     256.093563 [cm-1]
     freq (   24) =       7.808602 [THz] =     260.466917 [cm-1]
     freq (   25) =       7.963071 [THz] =     265.619466 [cm-1]
     freq (   26) =       8.304321 [THz] =     277.002330 [cm-1]
     freq (   27) =       8.358739 [THz] =     278.817531 [cm-1]
     freq (   28) =       8.973719 [THz] =     299.331046 [cm-1]
     freq (   29) =       9.409478 [THz] =     313.866412 [cm-1]
     freq (   30) =       9.824611 [THz] =     327.713763 [cm-1]
     freq (   31) =      10.052705 [THz] =     335.322139 [cm-1]
     freq (   32) =      10.581260 [THz] =     352.952846 [cm-1]
     freq (   33) =      10.961364 [THz] =     365.631734 [cm-1]

     Mode symmetry, C_s (m)     point group:

     freq (   1-   1) =         52.4  [cm-1]   --> A'
     freq (   2-   2) =         66.1  [cm-1]   --> A''
     freq (   3-   3) =         70.3  [cm-1]   --> A'
     freq (   4-   4) =         87.2  [cm-1]   --> A''
     freq (   5-   5) =        100.0  [cm-1]   --> A''
     freq (   6-   6) =        111.3  [cm-1]   --> A'
     freq (   7-   7) =        129.1  [cm-1]   --> A''
     freq (   8-   8) =        129.8  [cm-1]   --> A'
     freq (   9-   9) =        152.1  [cm-1]   --> A''
     freq (  10-  10) =        152.4  [cm-1]   --> A'
     freq (  11-  11) =        158.1  [cm-1]   --> A'
     freq (  12-  12) =        165.9  [cm-1]   --> A'
     freq (  13-  13) =        174.6  [cm-1]   --> A''
     freq (  14-  14) =        185.6  [cm-1]   --> A'
     freq (  15-  15) =        212.2  [cm-1]   --> A'
     freq (  16-  16) =        213.7  [cm-1]   --> A''
     freq (  17-  17) =        221.7  [cm-1]   --> A''
     freq (  18-  18) =        222.6  [cm-1]   --> A'
     freq (  19-  19) =        225.1  [cm-1]   --> A'
     freq (  20-  20) =        237.5  [cm-1]   --> A''
     freq (  21-  21) =        241.5  [cm-1]   --> A'
     freq (  22-  22) =        251.5  [cm-1]   --> A'
     freq (  23-  23) =        256.1  [cm-1]   --> A''
     freq (  24-  24) =        260.5  [cm-1]   --> A'
     freq (  25-  25) =        265.6  [cm-1]   --> A''
     freq (  26-  26) =        277.0  [cm-1]   --> A''
     freq (  27-  27) =        278.8  [cm-1]   --> A'
     freq (  28-  28) =        299.3  [cm-1]   --> A''
     freq (  29-  29) =        313.9  [cm-1]   --> A'
     freq (  30-  30) =        327.7  [cm-1]   --> A'
     freq (  31-  31) =        335.3  [cm-1]   --> A''
     freq (  32-  32) =        353.0  [cm-1]   --> A'
     freq (  33-  33) =        365.6  [cm-1]   --> A'

     General routines

     Parallel routines

     INITIALIZATION:

     DYNAMICAL MATRIX:

                                        0.00s GPU  (    1355 calls)

                                        0.00s GPU  (      99 calls)

      General routines

      Additional routines
                                        0.00s GPU  (   40742 calls)
                                        0.00s GPU  (   40742 calls)

   This run was terminated on:  18: 9:55   8May2025

   JOB DONE.