     Program PWSCF v.7.3.1 starts on  8May2025 at  9:29:59

     Waiting for input...
     Reading input from standard input
Warning: card &CELL ignored
Warning: card / ignored
Warning: card &FCP ignored
Warning: card / ignored
Warning: card &RISM ignored
Warning: card / ignored

     Current dimensions of program PWSCF are:
     Max number of different atomic species (ntypx) = 10
     Max number of k-points (npk) =  40000
     Max angular momentum in pseudopotentials (lmaxx) =  4

     IMPORTANT: XC functional enforced from input :
     Exchange-correlation= PBE
                           (   1   4   3   4   0   0   0)
     Any further DFT definition will be discarded
     Please, verify this is what you really want

     Message from routine setup:
     using ibrav=0 with symmetry is DISCOURAGED, use correct ibrav instead

     K-points division:     npool     =      12
     R & G space division:  proc/nbgrp/npool/nimage =      32
     Subspace diagonalization in iterative solution of the eigenvalue problem:
     a serial algorithm will be used

     Message from routine divide_et_impera:
     suboptimal parallelization: some nodes have no k-points

     Using Slab Decomposition

     bravais-lattice index     =            0
     lattice parameter (alat)  =      12.7288  a.u.
     unit-cell volume          =    8140.0419 (a.u.)^3
     number of atoms/cell      =           11
     number of atomic types    =            2
     number of electrons       =        95.00
     number of Kohn-Sham states=           58
     kinetic-energy cutoff     =     100.0000  Ry
     charge density cutoff     =     400.0000  Ry
     scf convergence threshold =      1.0E-12
     mixing beta               =       0.7000
     number of iterations used =            8  plain     mixing
     Exchange-correlation= PBE
                           (   1   4   3   4   0   0   0)

     celldm(1)=  12.728776  celldm(2)=   0.000000  celldm(3)=   0.000000
     celldm(4)=   0.000000  celldm(5)=   0.000000  celldm(6)=   0.000000

     crystal axes: (cart. coord. in units of alat)
               a(1) = (   0.866025   0.500000   0.000000 )
               a(2) = (  -0.866025   0.500000   0.000000 )
               a(3) = (   0.000000   0.000000   4.557598 )

     reciprocal axes: (cart. coord. in units 2 pi/alat)
               b(1) = (  0.577350  1.000000 -0.000000 )
               b(2) = ( -0.577350  1.000000  0.000000 )
               b(3) = (  0.000000 -0.000000  0.219414 )

     PseudoPot. # 1 for Nb read from file:
     /scratch-shared/mroesner/Nb3X8_cDFPT/pp/Nb_ONCV_PBE-1.2.upf
     MD5 check sum: 2c750ac0b6910ff4cf0ab5f6c4124a64
     Pseudo is Norm-conserving, Zval = 13.0
     Generated using ONCVPSP code by D. R. Hamann
     Using radial grid of  602 points,  6 beta functions with:
                l(1) =   0
                l(2) =   0
                l(3) =   1
                l(4) =   1
                l(5) =   2
                l(6) =   2

     PseudoPot. # 2 for Cl read from file:
     /scratch-shared/mroesner/Nb3X8_cDFPT/pp/Cl_ONCV_PBE-1.2.upf
     MD5 check sum: 0f993535b366f580ecbcdacce103c843
     Pseudo is Norm-conserving, Zval =  7.0
     Generated using ONCVPSP code by D. R. Hamann
     Using radial grid of  602 points,  4 beta functions with:
                l(1) =   0
                l(2) =   0
                l(3) =   1
                l(4) =   1

     atomic species   valence    mass     pseudopotential
     Nb               13.00    92.90637     Nb( 1.00)
     Cl                7.00    35.45270     Cl( 1.00)

      6 Sym. Ops. (no inversion) found

                                    s                        frac. trans.

      isym =  1     identity

 cryst.   s( 1) = (     1          0          0      )
                  (     0          1          0      )
                  (     0          0          1      )

 cart.    s( 1) = (  1.0000000  0.0000000  0.0000000 )
                  ( -0.0000000  1.0000000  0.0000000 )
                  (  0.0000000  0.0000000  1.0000000 )

      isym =  2     120 deg rotation - cryst. axis [0,0,1]

[...]

      isym =  3     120 deg rotation - cryst. axis [0,0,-1]

[...]

      isym =  4     inv. 180 deg rotation - cart. axis [0,1,0]

[...]

      isym =  5     inv. 180 deg rotation - cryst. axis [1,-1,0]

[...]

      isym =  6     inv. 180 deg rotation - cryst. axis [2,1,0]

 cryst.   s( 6) = (    -1          0          0      )
                  (     1          1          0      )
                  (     0          0          1      )

 cart.    s( 6) = ( -0.5000000 -0.8660254  0.0000000 )
                  ( -0.8660254  0.5000000  0.0000000 )
                  (  0.0000000  0.0000000  1.0000000 )

   Cartesian axes

     site n.     atom                  positions (alat units)
         1        Nb     tau(   1) = (  -0.2402445   0.0000000   0.4640943  )
         2        Nb     tau(   2) = (   0.1201223  -0.2080579   0.4640943  )
         3        Nb     tau(   3) = (   0.1201223   0.2080579   0.4640943  )
         4        Cl     tau(   4) = (   0.2850443  -0.0000000   0.2176560  )
         5        Cl     tau(   5) = (  -0.1425221   0.2468556   0.2176560  )
         6        Cl     tau(   6) = (  -0.1425221  -0.2468556   0.2176560  )
         7        Cl     tau(   7) = (  -0.5773503  -0.0000000   0.2609354  )
         8        Cl     tau(   8) = (   0.8630545  -0.0000000   0.6655026  )
         9        Cl     tau(   9) = (   0.4344982   0.2474271   0.6655026  )
        10        Cl     tau(  10) = (   0.4344982  -0.2474271   0.6655026  )
        11        Cl     tau(  11) = (   0.0000000   0.0000000   0.7383673  )

     DFT-D3 Dispersion Correction (no 3-body):
       Reference C6 values for interpolation:

         atom   Coordination number   C6
         Cl         0.000           184.69
         Cl         0.997           180.80
         Nb         0.000          2950.50
         Nb         1.954          1161.16
         Nb         2.922           857.79

       Values used:

         atom   Coordination number  R0_AB[au]  C6      C8
         Nb         8.244            3.647    857.79 111659.18
         Nb         8.244            3.647    857.79 111659.18
         Nb         8.244            3.647    857.79 111659.18
         Cl         2.244            2.933    180.80   7543.50
         Cl         2.244            2.933    180.80   7543.50
         Cl         2.244            2.933    180.80   7543.50
         Cl         3.076            2.933    180.80   7543.49
         Cl         2.251            2.933    180.80   7543.50
         Cl         2.251            2.933    180.80   7543.50
         Cl         2.251            2.933    180.80   7543.50
         Cl         3.133            2.933    180.80   7543.49

         Molecular C6 ( Ry / a.u.^6 ) =     37724.98

   Crystallographic axes

     site n.     atom                  positions (cryst. coord.)
         1        Nb     tau(   1) = ( -0.1387052  0.1387052  0.1018287  )
         2        Nb     tau(   2) = ( -0.1387052 -0.2774105  0.1018287  )
         3        Nb     tau(   3) = (  0.2774105  0.1387052  0.1018287  )
         4        Cl     tau(   4) = (  0.1645704 -0.1645704  0.0477567  )
         5        Cl     tau(   5) = (  0.1645704  0.3291408  0.0477567  )
         6        Cl     tau(   6) = ( -0.3291408 -0.1645704  0.0477567  )
         7        Cl     tau(   7) = ( -0.3333333  0.3333333  0.0572528  )
         8        Cl     tau(   8) = (  0.4982847 -0.4982847  0.1460205  )
         9        Cl     tau(   9) = (  0.4982847 -0.0034305  0.1460205  )
        10        Cl     tau(  10) = (  0.0034305 -0.4982847  0.1460205  )
        11        Cl     tau(  11) = (  0.0000000  0.0000000  0.1620080  )

     number of k points=     7  Gaussian smearing, width (Ry)=  0.0037
                       cart. coord. in units 2pi/alat
        k(    1) = (   0.0000000   0.0000000   0.0000000), wk =   0.0555556
        k(    2) = (  -0.0962250   0.1666667   0.0000000), wk =   0.3333333
        k(    3) = (  -0.1924501   0.3333333   0.0000000), wk =   0.3333333
        k(    4) = (   0.2886751  -0.5000000   0.0000000), wk =   0.1666667
        k(    5) = (  -0.0000000   0.3333333   0.0000000), wk =   0.3333333
        k(    6) = (  -0.0962250   0.5000000   0.0000000), wk =   0.6666667
        k(    7) = (  -0.0000000   0.6666667   0.0000000), wk =   0.1111111

                       cryst. coord.
        k(    1) = (   0.0000000   0.0000000   0.0000000), wk =   0.0555556
        k(    2) = (  -0.0000000   0.1666667   0.0000000), wk =   0.3333333
        k(    3) = (  -0.0000000   0.3333333   0.0000000), wk =   0.3333333
        k(    4) = (   0.0000000  -0.5000000   0.0000000), wk =   0.1666667
        k(    5) = (   0.1666667   0.1666667   0.0000000), wk =   0.3333333
        k(    6) = (   0.1666667   0.3333333   0.0000000), wk =   0.6666667
        k(    7) = (   0.3333333   0.3333333   0.0000000), wk =   0.1111111

     Initial potential from superposition of free atoms

     starting charge      94.6161, renormalised to      95.0000

     negative rho (up, down):  1.459E-03 0.000E+00
     Starting wfcs are random

     Self-consistent Calculation

     iteration #  1     ecut=   100.00 Ry     beta= 0.70
     Davidson diagonalization with overlap

     ethr =  1.00E-02,  avg # of iterations = 16.3

     Threshold (ethr) on eigenvalues was too large:
     Diagonalizing with lowered threshold

     Davidson diagonalization with overlap

[...]

     negative rho (up, down):  2.863E-04 0.000E+00

     total energy              =    -584.98144064 Ry
     estimated scf accuracy    <       0.31109684 Ry

[...]

     negative rho (up, down):  1.784E-08 0.000E+00

[...]

     total energy              =    -585.08317001 Ry
     estimated scf accuracy    <          3.8E-12 Ry

     iteration # 16     ecut=   100.00 Ry     beta= 0.70
     Davidson diagonalization with overlap

     ethr =  1.00E-13,  avg # of iterations =  1.0

     End of self-consistent calculation

          k = 0.0000 0.0000 0.0000 (137531 PWs)   bands (ev):

   -58.1002 -57.9985 -57.9985 -34.5685 -34.3289 -34.3289 -34.3121 -34.1756
   -34.1756 -33.9277 -33.7734 -33.7734 -19.6599 -19.0643 -18.5697 -18.4244
   -18.4244 -18.3093 -17.9676 -17.9676  -9.1976  -9.1976  -8.8559  -8.6606
    -8.2271  -8.2271  -8.0724  -7.9128  -7.6178  -7.6178  -7.1720  -7.0082
    -7.0082  -6.5958  -6.5059  -6.5059  -6.2017  -6.2017  -6.1340  -6.0555
    -5.4361  -5.4361  -4.9469  -4.9469  -3.8535  -3.2879  -3.2879  -1.9650
    -1.1760  -1.1760  -0.1927  -0.1927  -0.1697   0.2197   0.2277   0.2277
     0.5634   0.5634

     occupation numbers
     1.0000   1.0000   1.0000   1.0000   1.0000   1.0000   1.0000   1.0000
     1.0000   1.0000   1.0000   1.0000   1.0000   1.0000   1.0000   1.0000
     1.0000   1.0000   1.0000   1.0000   1.0000   1.0000   1.0000   1.0000
     1.0000   1.0000   1.0000   1.0000   1.0000   1.0000   1.0000   1.0000
     1.0000   1.0000   1.0000   1.0000   1.0000   1.0000   1.0000   1.0000
     1.0000   1.0000   1.0000   1.0000   1.0000   1.0000   1.0000   0.0001
     0.0000   0.0000   0.0000   0.0000   0.0000   0.0000   0.0000   0.0000
     0.0000   0.0000

          k =-0.0962 0.1667 0.0000 (137449 PWs)   bands (ev):

[...]

          k = 0.2887-0.5000 0.0000 (137556 PWs)   bands (ev):

[...]

          k =-0.0000 0.6667 0.0000 (137418 PWs)   bands (ev):

   -58.0988 -57.9999 -57.9985 -34.5385 -34.3163 -34.3138 -34.3042 -34.1821
   -34.1788 -33.9432 -33.8077 -33.7874 -19.5607 -18.8839 -18.6717 -18.5906
   -18.3763 -18.2458 -18.1510 -17.9653  -8.8902  -8.5961  -8.4914  -8.2572
    -8.2141  -7.9131  -7.8680  -7.7484  -7.5611  -7.4912  -7.4580  -7.2346
    -7.1193  -7.0962  -6.9735  -6.6269  -6.5038  -6.3177  -6.2985  -6.1183
    -5.8336  -5.6241  -5.5385  -5.2988  -4.0248  -3.2776  -3.1815  -2.1166
    -1.2360  -0.8915  -0.4478  -0.4257  -0.3702  -0.2420  -0.1741   0.2659
     0.6978   0.7345

     occupation numbers
     1.0000   1.0000   1.0000   1.0000   1.0000   1.0000   1.0000   1.0000
     1.0000   1.0000   1.0000   1.0000   1.0000   1.0000   1.0000   1.0000
     1.0000   1.0000   1.0000   1.0000   1.0000   1.0000   1.0000   1.0000
     1.0000   1.0000   1.0000   1.0000   1.0000   1.0000   1.0000   1.0000
     1.0000   1.0000   1.0000   1.0000   1.0000   1.0000   1.0000   1.0000
     1.0000   1.0000   1.0000   1.0000   1.0000   1.0000   1.0000   0.6550
     0.0000   0.0000   0.0000   0.0000   0.0000   0.0000   0.0000   0.0000
     0.0000   0.0000

     the Fermi energy is    -2.1025 ev

!    total energy              =    -585.08317001 Ry
     estimated scf accuracy    <          5.3E-13 Ry
     smearing contrib. (-TS)   =      -0.00121776 Ry
     internal energy E=F+TS    =    -585.08195225 Ry

     The total energy is F=E-TS. E is the sum of the following terms:
     one-electron contribution =   -5885.38882230 Ry
     hartree contribution      =    2940.15012316 Ry
     xc contribution           =     -87.88581078 Ry
     ewald contribution        =    2448.15288869 Ry
     DFT-D3 Dispersion         =      -0.11033101 Ry

     convergence has been achieved in  16 iterations

     Forces acting on atoms (cartesian axes, Ry/au):

     atom    1 type  1   force =     0.00015658   -0.00000000   -0.00020111
     atom    2 type  1   force =    -0.00007829    0.00013560   -0.00020111
     atom    3 type  1   force =    -0.00007829   -0.00013560   -0.00020111
     atom    4 type  2   force =     0.00007702   -0.00000000    0.00007781
     atom    5 type  2   force =    -0.00003851    0.00006670    0.00007781
     atom    6 type  2   force =    -0.00003851   -0.00006670    0.00007781
     atom    7 type  2   force =     0.00000000    0.00000000   -0.00001444
     atom    8 type  2   force =    -0.00003029    0.00000000    0.00011880
     atom    9 type  2   force =     0.00001515   -0.00002623    0.00011880
     atom   10 type  2   force =     0.00001515    0.00002623    0.00011880
     atom   11 type  2   force =    -0.00000000   -0.00000000    0.00002794
     The non-local contrib.  to forces
     atom    1 type  1   force =     0.23606179    0.00000000    0.03864062
     atom    2 type  1   force =    -0.11803089    0.20443550    0.03864062
     atom    3 type  1   force =    -0.11803089   -0.20443550    0.03864062
     atom    4 type  2   force =    -0.19071851   -0.00000000    0.28974682
     atom    5 type  2   force =     0.09535926   -0.16516707    0.28974682
     atom    6 type  2   force =     0.09535926    0.16516707    0.28974682
     atom    7 type  2   force =    -0.00000000   -0.00000000    0.35319780
     atom    8 type  2   force =     0.17592555    0.00000000   -0.27587801
     atom    9 type  2   force =    -0.08796277    0.15235599   -0.27587801
     atom   10 type  2   force =    -0.08796277   -0.15235599   -0.27587801
     atom   11 type  2   force =     0.00000000    0.00000000   -0.43993834
     The ionic contribution  to forces
     atom    1 type  1   force =    -9.14654937    0.00000000    1.24068823
     atom    2 type  1   force =     4.57327469   -7.92114412    1.24068823
     atom    3 type  1   force =     4.57327469    7.92114412    1.24068823
     atom    4 type  2   force =     6.42517786   -0.00000000  -35.17957112
     atom    5 type  2   force =    -3.21258893    5.56436725  -35.17957112
     atom    6 type  2   force =    -3.21258893   -5.56436725  -35.17957112
     atom    7 type  2   force =    -0.00000000   -0.00000000  -30.03410252
     atom    8 type  2   force =    -3.56908358    0.00000000   29.69327417
     atom    9 type  2   force =     1.78454178   -3.09091705   29.69327417
     atom   10 type  2   force =     1.78454178    3.09091705   29.69327417
     atom   11 type  2   force =     0.00000000   -0.00000000   42.77092868
     The local contribution  to forces
     atom    1 type  1   force =     8.90847435    0.00000000   -1.27947210
     atom    2 type  1   force =    -4.45423718    7.71496510   -1.27947210
     atom    3 type  1   force =    -4.45423718   -7.71496510   -1.27947210
     atom    4 type  2   force =    -6.23534249    0.00000000   34.88834869
     atom    5 type  2   force =     3.11767125   -5.39996500   34.88834869
     atom    6 type  2   force =     3.11767125    5.39996500   34.88834869
     atom    7 type  2   force =    -0.00000001    0.00000000   29.68096405
     atom    8 type  2   force =     3.39362100   -0.00000000  -29.41613224
     atom    9 type  2   force =    -1.69681051    2.93896200  -29.41613224
     atom   10 type  2   force =    -1.69681051   -2.93896200  -29.41613224
     atom   11 type  2   force =     0.00000000   -0.00000000  -42.32999131
     The core correction contribution to forces
     atom    1 type  1   force =     0.00000000    0.00000000    0.00000000
     atom    2 type  1   force =     0.00000000    0.00000000    0.00000000
     atom    3 type  1   force =     0.00000000    0.00000000    0.00000000
     atom    4 type  2   force =     0.00000000    0.00000000    0.00000000
     atom    5 type  2   force =     0.00000000    0.00000000    0.00000000
     atom    6 type  2   force =     0.00000000    0.00000000    0.00000000
     atom    7 type  2   force =     0.00000000    0.00000000    0.00000000
     atom    8 type  2   force =     0.00000000    0.00000000    0.00000000
     atom    9 type  2   force =     0.00000000    0.00000000    0.00000000
     atom   10 type  2   force =     0.00000000    0.00000000    0.00000000
     atom   11 type  2   force =     0.00000000    0.00000000    0.00000000
     The Hubbard contrib.    to forces
     atom    1 type  1   force =     0.00000000    0.00000000    0.00000000
     atom    2 type  1   force =     0.00000000    0.00000000    0.00000000
     atom    3 type  1   force =     0.00000000    0.00000000    0.00000000
     atom    4 type  2   force =     0.00000000    0.00000000    0.00000000
     atom    5 type  2   force =     0.00000000    0.00000000    0.00000000
     atom    6 type  2   force =     0.00000000    0.00000000    0.00000000
     atom    7 type  2   force =     0.00000000    0.00000000    0.00000000
     atom    8 type  2   force =     0.00000000    0.00000000    0.00000000
     atom    9 type  2   force =     0.00000000    0.00000000    0.00000000
     atom   10 type  2   force =     0.00000000    0.00000000    0.00000000
     atom   11 type  2   force =     0.00000000    0.00000000    0.00000000
     The SCF correction term to forces
     atom    1 type  1   force =    -0.00000002    0.00000000   -0.00000149
     atom    2 type  1   force =     0.00000001   -0.00000002   -0.00000149
     atom    3 type  1   force =     0.00000001    0.00000002   -0.00000149
     atom    4 type  2   force =     0.00000005    0.00000000    0.00000000
     atom    5 type  2   force =    -0.00000002    0.00000004    0.00000000
     atom    6 type  2   force =    -0.00000002   -0.00000004    0.00000000
     atom    7 type  2   force =    -0.00000000   -0.00000000   -0.00000009
     atom    8 type  2   force =     0.00000013   -0.00000000   -0.00000100
     atom    9 type  2   force =    -0.00000007    0.00000011   -0.00000100
     atom   10 type  2   force =    -0.00000007   -0.00000011   -0.00000100
     atom   11 type  2   force =     0.00000000    0.00000000   -0.00000096

     DFT-D3 dispersion contribution to forces:
     atom    1 type  1   force =     0.00216983   -0.00000000   -0.00005773
     atom    2 type  1   force =    -0.00108492    0.00187913   -0.00005773
     atom    3 type  1   force =    -0.00108492   -0.00187913   -0.00005773
     atom    4 type  2   force =     0.00096012    0.00000000    0.00155207
     atom    5 type  2   force =    -0.00048006    0.00083149    0.00155207
     atom    6 type  2   force =    -0.00048006   -0.00083149    0.00155207
     atom    7 type  2   force =    -0.00000000   -0.00000000   -0.00007504
     atom    8 type  2   force =    -0.00049340   -0.00000000   -0.00114549
     atom    9 type  2   force =     0.00024670   -0.00042729   -0.00114549
     atom   10 type  2   force =     0.00024670    0.00042729   -0.00114549
     atom   11 type  2   force =     0.00000000    0.00000000   -0.00097149

     Total force =     0.000526     Total SCF correction =     0.000003

     DFT-D3 dispersion Force =     0.005454

     Computing stress (Cartesian axis) and pressure

          total   stress  (Ry/bohr**3)                   (kbar)     P=        0.90
   0.00000931  -0.00000000   0.00000000            1.37       -0.00        0.00
   0.00000000   0.00000931   0.00000000            0.00        1.37        0.00
   0.00000000   0.00000000  -0.00000034            0.00        0.00       -0.05

     kinetic stress (kbar)   2344.27     -0.00     -0.00
                               -0.00   2344.27     -0.00
                               -0.00     -0.00   2321.65

     local   stress (kbar)-105345.39     -0.00      0.00
                               -0.00-105345.39     -0.00
                                0.00     -0.00 101399.08

     nonloc. stress (kbar)   2131.54      0.00      0.00
                                0.00   2131.54      0.00
                                0.00      0.00   2138.35

     hartree stress (kbar)  51677.62      0.00     -0.00
                                0.00  51677.62      0.00
                               -0.00      0.00 -50221.48

     exc-cor stress (kbar)   -496.01      0.00     -0.00
                                0.00   -496.01     -0.00
                               -0.00     -0.00   -497.15

     corecor stress (kbar)      0.00      0.00      0.00
                                0.00      0.00      0.00
                                0.00      0.00      0.00

     ewald   stress (kbar)  49691.25     -0.00     -0.00
                               -0.00  49691.25     -0.00
                               -0.00     -0.00 -55140.01

     hubbard stress (kbar)      0.00      0.00      0.00
                                0.00      0.00      0.00
                                0.00      0.00      0.00

     DFT-D   stress (kbar)     -1.91     -0.00     -0.00
                               -0.00     -1.91      0.00
                               -0.00      0.00     -0.48

     XDM     stress (kbar)      0.00      0.00      0.00
                                0.00      0.00      0.00
                                0.00      0.00      0.00

     dft-nl  stress (kbar)      0.00      0.00      0.00
                                0.00      0.00      0.00
                                0.00      0.00      0.00

     TS-vdW  stress (kbar)      0.00      0.00      0.00
                                0.00      0.00      0.00
                                0.00      0.00      0.00

     MDB     stress (kbar)      0.00      0.00      0.00
                                0.00      0.00      0.00
                                0.00      0.00      0.00

     3D-RISM stress (kbar)      0.00      0.00      0.00
                                0.00      0.00      0.00
                                0.00      0.00      0.00

     Writing all to output data dir ./out/Nb3Cl8.save/ :
     XML data file, charge density, pseudopotentials, collected wavefunctions

     General routines

     Parallel routines

   This run was terminated on:   9:32:16   8May2025

   JOB DONE.