     Program PHONON v.7.3.1 starts on 11May2025 at 14:29: 0

     Waiting for input...
     Reading input from standard input

     Reading xml data from directory:

     ./out/Nb3Cl8.save/

     K-points division:     npool     =      12
     R & G space division:  proc/nbgrp/npool/nimage =      32
     Subspace diagonalization in iterative solution of the eigenvalue problem:
     a serial algorithm will be used

     IMPORTANT: XC functional enforced from input :
     Exchange-correlation= PBE
                           (   1   4   3   4   0   0   0)
     Any further DFT definition will be discarded
     Please, verify this is what you really want

     Using Slab Decomposition

     Reading collected, re-writing distributed wavefunctions in ./out/

     Saving dvscf to file. Distribute only q points, not irreducible representations.
        4 /   4 q-points for this run, from  1 to  4:
       N       xq(1)         xq(2)         xq(3)
       1   0.000000000   0.000000000   0.000000000
       2   0.000000000   0.000000000  -0.274267270
       3   0.288675135  -0.500000000   0.091422423
       4   0.288675135  -0.500000000  -0.182844846

     Calculation of q =    0.0000000   0.0000000   0.0000000

     Restart in Phonon calculation

     Nb3Cl8

     bravais-lattice index     =            0
     lattice parameter (alat)  =      12.7288  a.u.
     unit-cell volume          =    3256.0167 (a.u.)^3
     number of atoms/cell      =           22
     number of atomic types    =            2
     kinetic-energy cut-off    =     100.0000  Ry
     charge density cut-off    =     400.0000  Ry
     convergence threshold     =      1.0E-16
     beta                      =       0.7000
     number of iterations used =            4
     Exchange-correlation= PBE
                           (   1   4   3   4   0   0   0)

     celldm(1)=   12.72878  celldm(2)=    0.00000  celldm(3)=    0.00000
     celldm(4)=    0.00000  celldm(5)=    0.00000  celldm(6)=    0.00000

     crystal axes: (cart. coord. in units of alat)
               a(1) = (  0.8660  0.5000  0.0000 )
               a(2) = ( -0.8660  0.5000  0.0000 )
               a(3) = ( -0.5774  0.0000  1.8230 )

     reciprocal axes: (cart. coord. in units 2 pi/alat)
               b(1) = (  0.5774  1.0000  0.1828 )
               b(2) = ( -0.5774  1.0000 -0.1828 )
               b(3) = (  0.0000 -0.0000  0.5485 )

     Atoms inside the unit cell:

     Cartesian axes

     site n.  atom      mass           positions (alat units)
        1  Nb     92.9064   tau(    1) = (    0.23978   -0.00000   -0.46026  )
        2  Nb     92.9064   tau(    2) = (   -0.11989    0.20765   -0.46026  )
        3  Nb     92.9064   tau(    3) = (   -0.11989   -0.20765   -0.46026  )
        4  Nb     92.9064   tau(    4) = (   -0.23978    0.00000    0.46026  )
        5  Nb     92.9064   tau(    5) = (    0.11989   -0.20765    0.46026  )
        6  Nb     92.9064   tau(    6) = (    0.11989    0.20765    0.46026  )
        7  Cl     35.4527   tau(    7) = (   -0.00000   -0.00000   -0.73265  )
        8  Cl     35.4527   tau(    8) = (    0.86951    0.00000   -0.66249  )
        9  Cl     35.4527   tau(    9) = (    0.43127    0.25301   -0.66249  )
       10  Cl     35.4527   tau(   10) = (    0.43127   -0.25301   -0.66249  )
       11  Cl     35.4527   tau(   11) = (    0.57735   -0.00000   -0.25797  )
       12  Cl     35.4527   tau(   12) = (   -0.28658    0.00000   -0.21680  )
       13  Cl     35.4527   tau(   13) = (    0.14329   -0.24819   -0.21680  )
       14  Cl     35.4527   tau(   14) = (    0.14329    0.24819   -0.21680  )
       15  Cl     35.4527   tau(   15) = (    0.28658   -0.00000    0.21680  )
       16  Cl     35.4527   tau(   16) = (   -0.14329    0.24819    0.21680  )
       17  Cl     35.4527   tau(   17) = (   -0.14329   -0.24819    0.21680  )
       18  Cl     35.4527   tau(   18) = (   -0.57735    0.00000    0.25797  )
       19  Cl     35.4527   tau(   19) = (   -0.86951   -0.00000    0.66249  )
       20  Cl     35.4527   tau(   20) = (   -0.43127   -0.25301    0.66249  )
       21  Cl     35.4527   tau(   21) = (   -0.43127    0.25301    0.66249  )
       22  Cl     35.4527   tau(   22) = (    0.00000    0.00000    0.73265  )

     Computing dynamical matrix for
                    q = (   0.0000000   0.0000000   0.0000000 )

     13 Sym.Ops. (with q -> -q+G )

     G cutoff = 1641.6235  (  13748 G-vectors)     FFT grid: (180,180,180)

     number of k points=    32  Gaussian smearing, width (Ry)=  0.0037

     PseudoPot. # 1 for Nb read from file:
     /scratch-shared/mroesner/Nb3X8_cDFPT/pp/Nb_ONCV_PBE-1.2.upf
     MD5 check sum: 2c750ac0b6910ff4cf0ab5f6c4124a64
     Pseudo is Norm-conserving, Zval = 13.0
     Generated using ONCVPSP code by D. R. Hamann
     Using radial grid of  602 points,  6 beta functions with:
                l(1) =   0
                l(2) =   0
                l(3) =   1
                l(4) =   1
                l(5) =   2
                l(6) =   2

     PseudoPot. # 2 for Cl read from file:
     /scratch-shared/mroesner/Nb3X8_cDFPT/pp/Cl_ONCV_PBE-1.2.upf
     MD5 check sum: 0f993535b366f580ecbcdacce103c843
     Pseudo is Norm-conserving, Zval =  7.0
     Generated using ONCVPSP code by D. R. Hamann
     Using radial grid of  602 points,  4 beta functions with:
                l(1) =   0
                l(2) =   0
                l(3) =   1
                l(4) =   1

     Mode symmetry, D_3d (-3m)  point group:

     Atomic displacements:
     There are   44 irreducible representations

     Representation     1      1 modes -  Done

[...]

     Number of q in the star =    1
     List of q in the star:
          1   0.000000000   0.000000000   0.000000000

     Diagonalizing the dynamical matrix

     q = (    0.000000000   0.000000000   0.000000000 )

     freq (    1) =      -0.205157 [THz] =      -6.843311 [cm-1]
     freq (    2) =      -0.205157 [THz] =      -6.843311 [cm-1]
     freq (    3) =      -0.022413 [THz] =      -0.747618 [cm-1]
     freq (    4) =       0.691191 [THz] =      23.055652 [cm-1]
     freq (    5) =       0.691191 [THz] =      23.055652 [cm-1]
     freq (    6) =       1.666562 [THz] =      55.590537 [cm-1]
     freq (    7) =       3.172446 [THz] =     105.821415 [cm-1]
     freq (    8) =       3.172446 [THz] =     105.821415 [cm-1]
     freq (    9) =       3.195132 [THz] =     106.578115 [cm-1]
     freq (   10) =       3.195132 [THz] =     106.578115 [cm-1]
     freq (   11) =       3.343199 [THz] =     111.517112 [cm-1]
     freq (   12) =       3.472833 [THz] =     115.841252 [cm-1]
     freq (   13) =       3.659101 [THz] =     122.054476 [cm-1]
     freq (   14) =       3.659101 [THz] =     122.054476 [cm-1]
     freq (   15) =       3.876771 [THz] =     129.315145 [cm-1]
     freq (   16) =       3.876771 [THz] =     129.315145 [cm-1]
     freq (   17) =       4.877270 [THz] =     162.688208 [cm-1]
     freq (   18) =       4.877270 [THz] =     162.688208 [cm-1]
     freq (   19) =       5.049063 [THz] =     168.418619 [cm-1]
     freq (   20) =       5.049063 [THz] =     168.418619 [cm-1]
     freq (   21) =       5.352078 [THz] =     178.526106 [cm-1]
     freq (   22) =       5.422183 [THz] =     180.864564 [cm-1]
     freq (   23) =       5.622821 [THz] =     187.557123 [cm-1]
     freq (   24) =       5.772018 [THz] =     192.533806 [cm-1]
     freq (   25) =       5.772018 [THz] =     192.533806 [cm-1]
     freq (   26) =       5.798391 [THz] =     193.413515 [cm-1]
     freq (   27) =       5.798391 [THz] =     193.413515 [cm-1]
     freq (   28) =       5.871115 [THz] =     195.839319 [cm-1]
     freq (   29) =       6.372448 [THz] =     212.561992 [cm-1]
     freq (   30) =       6.372448 [THz] =     212.561992 [cm-1]
     freq (   31) =       6.390388 [THz] =     213.160396 [cm-1]
     freq (   32) =       6.397912 [THz] =     213.411357 [cm-1]
     freq (   33) =       6.397912 [THz] =     213.411357 [cm-1]
     freq (   34) =       6.471029 [THz] =     215.850304 [cm-1]
     freq (   35) =       6.665454 [THz] =     222.335597 [cm-1]
     freq (   36) =       6.715980 [THz] =     224.020973 [cm-1]
     freq (   37) =       7.152966 [THz] =     238.597260 [cm-1]
     freq (   38) =       7.152966 [THz] =     238.597260 [cm-1]
     freq (   39) =       7.205396 [THz] =     240.346132 [cm-1]
     freq (   40) =       7.205396 [THz] =     240.346132 [cm-1]
     freq (   41) =       7.620711 [THz] =     254.199542 [cm-1]
     freq (   42) =       7.648333 [THz] =     255.120944 [cm-1]
     freq (   43) =       7.690906 [THz] =     256.541012 [cm-1]
     freq (   44) =       7.690906 [THz] =     256.541012 [cm-1]
     freq (   45) =       7.705087 [THz] =     257.014053 [cm-1]
     freq (   46) =       7.705087 [THz] =     257.014053 [cm-1]
     freq (   47) =       7.975891 [THz] =     266.047092 [cm-1]
     freq (   48) =       7.999388 [THz] =     266.830865 [cm-1]
     freq (   49) =       8.295791 [THz] =     276.717792 [cm-1]
     freq (   50) =       8.316852 [THz] =     277.420327 [cm-1]
     freq (   51) =       8.316852 [THz] =     277.420327 [cm-1]
     freq (   52) =       8.340226 [THz] =     278.199990 [cm-1]
     freq (   53) =       8.340226 [THz] =     278.199990 [cm-1]
     freq (   54) =       8.678168 [THz] =     289.472528 [cm-1]
     freq (   55) =       9.068412 [THz] =     302.489678 [cm-1]
     freq (   56) =       9.068412 [THz] =     302.489678 [cm-1]
     freq (   57) =       9.131070 [THz] =     304.579699 [cm-1]
     freq (   58) =       9.131070 [THz] =     304.579699 [cm-1]
     freq (   59) =      10.328156 [THz] =     344.510209 [cm-1]
     freq (   60) =      10.381304 [THz] =     346.283042 [cm-1]
     freq (   61) =      10.664285 [THz] =     355.722243 [cm-1]
     freq (   62) =      10.664285 [THz] =     355.722243 [cm-1]
     freq (   63) =      10.759717 [THz] =     358.905510 [cm-1]
     freq (   64) =      10.759717 [THz] =     358.905511 [cm-1]
     freq (   65) =      11.608434 [THz] =     387.215666 [cm-1]
     freq (   66) =      11.990192 [THz] =     399.949739 [cm-1]

[...]

     freq (   1-   2) =         -6.8  [cm-1]   --> E_u  L_3'       I
     freq (   3-   3) =         -0.7  [cm-1]   --> A_2u L_2'       I
     freq (   4-   5) =         23.1  [cm-1]   --> E_g  L_3        R
     freq (   6-   6) =         55.6  [cm-1]   --> A_1g L_1        R
     freq (   7-   8) =        105.8  [cm-1]   --> E_u  L_3'       I
     freq (   9-  10) =        106.6  [cm-1]   --> E_g  L_3        R
     freq (  11-  11) =        111.5  [cm-1]   --> A_2g L_2
     freq (  12-  12) =        115.8  [cm-1]   --> A_1u L_1'
     freq (  13-  14) =        122.1  [cm-1]   --> E_g  L_3        R
     freq (  15-  16) =        129.3  [cm-1]   --> E_u  L_3'       I
     freq (  17-  18) =        162.7  [cm-1]   --> E_g  L_3        R
     freq (  19-  20) =        168.4  [cm-1]   --> E_u  L_3'       I
     freq (  21-  21) =        178.5  [cm-1]   --> A_1g L_1        R
     freq (  22-  22) =        180.9  [cm-1]   --> A_2u L_2'       I
     freq (  23-  23) =        187.6  [cm-1]   --> A_2u L_2'       I
[...]
     freq (  24-  24) =        177.1  [cm-1]   --> B_g
     freq (  25-  25) =        177.6  [cm-1]   --> A_g
     freq (  26-  26) =        179.1  [cm-1]   --> A_u
     freq (  27-  27) =        189.1  [cm-1]   --> A_g
     freq (  28-  28) =        189.7  [cm-1]   --> B_u
     freq (  29-  29) =        213.3  [cm-1]   --> B_u
     freq (  30-  30) =        215.0  [cm-1]   --> B_g
     freq (  31-  31) =        215.1  [cm-1]   --> A_g
     freq (  32-  32) =        215.1  [cm-1]   --> A_u
     freq (  33-  33) =        225.7  [cm-1]   --> B_u
     freq (  34-  34) =        226.9  [cm-1]   --> A_g
     freq (  35-  35) =        228.6  [cm-1]   --> B_g
     freq (  36-  36) =        229.3  [cm-1]   --> B_u
     freq (  37-  37) =        229.6  [cm-1]   --> A_u
     freq (  38-  38) =        231.0  [cm-1]   --> A_g
     freq (  39-  39) =        235.8  [cm-1]   --> B_g
     freq (  40-  40) =        236.2  [cm-1]   --> A_u
     freq (  41-  41) =        245.2  [cm-1]   --> B_u
     freq (  42-  42) =        247.6  [cm-1]   --> A_g
     freq (  43-  43) =        254.6  [cm-1]   --> A_u
     freq (  44-  44) =        255.4  [cm-1]   --> B_g
     freq (  45-  45) =        256.7  [cm-1]   --> B_u
     freq (  46-  46) =        260.7  [cm-1]   --> B_u
     freq (  47-  47) =        261.9  [cm-1]   --> A_g
     freq (  48-  48) =        271.2  [cm-1]   --> A_u
     freq (  49-  49) =        271.8  [cm-1]   --> B_g
     freq (  50-  50) =        272.4  [cm-1]   --> A_g
     freq (  51-  51) =        284.0  [cm-1]   --> A_u
     freq (  52-  52) =        284.9  [cm-1]   --> B_g
     freq (  53-  53) =        285.2  [cm-1]   --> A_g
     freq (  54-  54) =        286.2  [cm-1]   --> B_u
     freq (  55-  55) =        305.3  [cm-1]   --> B_g
     freq (  56-  56) =        306.9  [cm-1]   --> A_u
     freq (  57-  57) =        317.9  [cm-1]   --> A_g
     freq (  58-  58) =        320.0  [cm-1]   --> B_u
     freq (  59-  59) =        336.7  [cm-1]   --> B_u
     freq (  60-  60) =        341.5  [cm-1]   --> A_g
     freq (  61-  61) =        344.9  [cm-1]   --> B_g
     freq (  62-  62) =        348.9  [cm-1]   --> A_u
     freq (  63-  63) =        360.4  [cm-1]   --> A_g
     freq (  64-  64) =        365.8  [cm-1]   --> B_u
     freq (  65-  65) =        373.1  [cm-1]   --> B_u
     freq (  66-  66) =        380.2  [cm-1]   --> A_g

     Calculation of q =    0.2886751  -0.5000000  -0.1828448

     Bands found: reading from ./out/_ph0/Nb3Cl8.q_4/

     Reading xml data from directory:

     ./out/_ph0/Nb3Cl8.q_4/Nb3Cl8.save/
     Message from routine qexsd_readschema :
     input info not found or not readable in xml file

     IMPORTANT: XC functional enforced from input :
     Exchange-correlation= PBE
                           (   1   4   3   4   0   0   0)
     Any further DFT definition will be discarded
     Please, verify this is what you really want

     Using Slab Decomposition

     read_file_new: Wavefunctions not in collected format?!?
     read_file: Wavefunctions in collected format not available

     Nb3Cl8

     bravais-lattice index     =            0
     lattice parameter (alat)  =      12.7288  a.u.
     unit-cell volume          =    3256.0167 (a.u.)^3
     number of atoms/cell      =           22
     number of atomic types    =            2
     kinetic-energy cut-off    =     100.0000  Ry
     charge density cut-off    =     400.0000  Ry
     convergence threshold     =      1.0E-16
     beta                      =       0.7000
     number of iterations used =            4
     Exchange-correlation= PBE
                           (   1   4   3   4   0   0   0)

     celldm(1)=   12.72878  celldm(2)=    0.00000  celldm(3)=    0.00000
     celldm(4)=    0.00000  celldm(5)=    0.00000  celldm(6)=    0.00000

     crystal axes: (cart. coord. in units of alat)
               a(1) = (  0.8660  0.5000  0.0000 )
               a(2) = ( -0.8660  0.5000  0.0000 )
               a(3) = ( -0.5774  0.0000  1.8230 )

     reciprocal axes: (cart. coord. in units 2 pi/alat)
               b(1) = (  0.5774  1.0000  0.1828 )
               b(2) = ( -0.5774  1.0000 -0.1828 )
               b(3) = (  0.0000 -0.0000  0.5485 )

     Atoms inside the unit cell:

     Cartesian axes

     site n.  atom      mass           positions (alat units)
        1  Nb     92.9064   tau(    1) = (    0.23978   -0.00000   -0.46026  )
        2  Nb     92.9064   tau(    2) = (   -0.11989    0.20765   -0.46026  )
        3  Nb     92.9064   tau(    3) = (   -0.11989   -0.20765   -0.46026  )
        4  Nb     92.9064   tau(    4) = (   -0.23978    0.00000    0.46026  )
        5  Nb     92.9064   tau(    5) = (    0.11989   -0.20765    0.46026  )
        6  Nb     92.9064   tau(    6) = (    0.11989    0.20765    0.46026  )
        7  Cl     35.4527   tau(    7) = (   -0.00000   -0.00000   -0.73265  )
        8  Cl     35.4527   tau(    8) = (    0.86951    0.00000   -0.66249  )
        9  Cl     35.4527   tau(    9) = (    0.43127    0.25301   -0.66249  )
       10  Cl     35.4527   tau(   10) = (    0.43127   -0.25301   -0.66249  )
       11  Cl     35.4527   tau(   11) = (    0.57735   -0.00000   -0.25797  )
       12  Cl     35.4527   tau(   12) = (   -0.28658    0.00000   -0.21680  )
       13  Cl     35.4527   tau(   13) = (    0.14329   -0.24819   -0.21680  )
       14  Cl     35.4527   tau(   14) = (    0.14329    0.24819   -0.21680  )
       15  Cl     35.4527   tau(   15) = (    0.28658   -0.00000    0.21680  )
       16  Cl     35.4527   tau(   16) = (   -0.14329    0.24819    0.21680  )
       17  Cl     35.4527   tau(   17) = (   -0.14329   -0.24819    0.21680  )
       18  Cl     35.4527   tau(   18) = (   -0.57735    0.00000    0.25797  )
       19  Cl     35.4527   tau(   19) = (   -0.86951   -0.00000    0.66249  )
       20  Cl     35.4527   tau(   20) = (   -0.43127   -0.25301    0.66249  )
       21  Cl     35.4527   tau(   21) = (   -0.43127    0.25301    0.66249  )
       22  Cl     35.4527   tau(   22) = (    0.00000    0.00000    0.73265  )

     Computing dynamical matrix for
                    q = (   0.2886751  -0.5000000  -0.1828448 )

      5 Sym.Ops. (with q -> -q+G )

     G cutoff = 1641.6235  (  13748 G-vectors)     FFT grid: (180,180,180)

     number of k points=   136  Gaussian smearing, width (Ry)=  0.0037

     PseudoPot. # 1 for Nb read from file:
     /scratch-shared/mroesner/Nb3X8_cDFPT/pp/Nb_ONCV_PBE-1.2.upf
     MD5 check sum: 2c750ac0b6910ff4cf0ab5f6c4124a64
     Pseudo is Norm-conserving, Zval = 13.0
     Generated using ONCVPSP code by D. R. Hamann
     Using radial grid of  602 points,  6 beta functions with:
                l(1) =   0
                l(2) =   0
                l(3) =   1
                l(4) =   1
                l(5) =   2
                l(6) =   2

     PseudoPot. # 2 for Cl read from file:
     /scratch-shared/mroesner/Nb3X8_cDFPT/pp/Cl_ONCV_PBE-1.2.upf
     MD5 check sum: 0f993535b366f580ecbcdacce103c843
     Pseudo is Norm-conserving, Zval =  7.0
     Generated using ONCVPSP code by D. R. Hamann
     Using radial grid of  602 points,  4 beta functions with:
                l(1) =   0
                l(2) =   0
                l(3) =   1
                l(4) =   1

[...]

     Atomic displacements:
     There are   64 irreducible representations

[...]

     Representation    14      2 modes -  Done

     Representation    15      1 modes -  To be done

[...]

     Representation    64      1 modes -  To be done

     Message from routine init_vloc:
     Interpolation table for Vloc re-allocated

     Representation #  15 mode #  17

     Self-consistent Calculation

      thresh= 1.000E-02 alpha_mix =  0.700 |ddv_scf|^2 =  2.327E-07

[...]

     End of self-consistent calculation

     Convergence has been achieved

[...]

     Representation #  64 mode #  66

     Self-consistent Calculation

[...]

      thresh= 3.152E-09 alpha_mix =  0.700 |ddv_scf|^2 =  4.424E-17

     End of self-consistent calculation

     Convergence has been achieved

     Number of q in the star =    3
     List of q in the star:
          1   0.288675135  -0.500000000  -0.182844846
          2   0.577350269   0.000000000   0.182844846
          3  -0.288675135  -0.500000000   0.182844846

     Diagonalizing the dynamical matrix

     q = (    0.288675135  -0.500000000  -0.182844846 )

     freq (    1) =       1.863590 [THz] =      62.162664 [cm-1]
     freq (    2) =       2.027530 [THz] =      67.631107 [cm-1]
     freq (    3) =       2.071362 [THz] =      69.093201 [cm-1]
     freq (    4) =       2.074020 [THz] =      69.181869 [cm-1]
     freq (    5) =       2.449808 [THz] =      81.716789 [cm-1]
     freq (    6) =       2.478660 [THz] =      82.679185 [cm-1]
     freq (    7) =       2.958726 [THz] =      98.692482 [cm-1]
     freq (    8) =       2.959864 [THz] =      98.730436 [cm-1]
     freq (    9) =       3.111876 [THz] =     103.801021 [cm-1]
     freq (   10) =       3.210923 [THz] =     107.104877 [cm-1]
     freq (   11) =       3.357879 [THz] =     112.006795 [cm-1]
     freq (   12) =       3.365912 [THz] =     112.274755 [cm-1]
     freq (   13) =       4.028663 [THz] =     134.381730 [cm-1]
     freq (   14) =       4.158495 [THz] =     138.712451 [cm-1]
     freq (   15) =       4.193659 [THz] =     139.885394 [cm-1]
     freq (   16) =       4.225688 [THz] =     140.953779 [cm-1]
     freq (   17) =       4.606033 [THz] =     153.640739 [cm-1]
     freq (   18) =       4.785125 [THz] =     159.614592 [cm-1]
     freq (   19) =       4.804918 [THz] =     160.274811 [cm-1]
     freq (   20) =       4.865938 [THz] =     162.310218 [cm-1]
     freq (   21) =       5.038810 [THz] =     168.076626 [cm-1]
     freq (   22) =       5.101993 [THz] =     170.184171 [cm-1]
     freq (   23) =       5.137443 [THz] =     171.366650 [cm-1]
     freq (   24) =       5.316417 [THz] =     177.336594 [cm-1]
     freq (   25) =       5.321022 [THz] =     177.490192 [cm-1]
     freq (   26) =       5.349180 [THz] =     178.429432 [cm-1]
     freq (   27) =       5.660853 [THz] =     188.825721 [cm-1]
     freq (   28) =       5.695591 [THz] =     189.984473 [cm-1]
     freq (   29) =       6.398201 [THz] =     213.420998 [cm-1]
     freq (   30) =       6.446619 [THz] =     215.036074 [cm-1]
     freq (   31) =       6.448049 [THz] =     215.083769 [cm-1]
     freq (   32) =       6.448876 [THz] =     215.111361 [cm-1]
     freq (   33) =       6.763024 [THz] =     225.590203 [cm-1]
     freq (   34) =       6.791074 [THz] =     226.525844 [cm-1]
     freq (   35) =       6.797023 [THz] =     226.724270 [cm-1]
     freq (   36) =       6.841471 [THz] =     228.206895 [cm-1]
     freq (   37) =       6.925391 [THz] =     231.006176 [cm-1]
     freq (   38) =       6.964410 [THz] =     232.307706 [cm-1]
     freq (   39) =       7.052747 [THz] =     235.254332 [cm-1]
     freq (   40) =       7.110614 [THz] =     237.184538 [cm-1]
     freq (   41) =       7.299557 [THz] =     243.487005 [cm-1]
     freq (   42) =       7.500220 [THz] =     250.180416 [cm-1]
     freq (   43) =       7.622208 [THz] =     254.249492 [cm-1]
     freq (   44) =       7.632901 [THz] =     254.606176 [cm-1]
     freq (   45) =       7.660562 [THz] =     255.528846 [cm-1]
     freq (   46) =       7.806849 [THz] =     260.408451 [cm-1]
     freq (   47) =       7.876117 [THz] =     262.718982 [cm-1]
     freq (   48) =       8.135592 [THz] =     271.374127 [cm-1]
     freq (   49) =       8.158800 [THz] =     272.148270 [cm-1]
     freq (   50) =       8.177603 [THz] =     272.775461 [cm-1]
     freq (   51) =       8.484293 [THz] =     283.005550 [cm-1]
     freq (   52) =       8.553588 [THz] =     285.316999 [cm-1]
     freq (   53) =       8.563812 [THz] =     285.658015 [cm-1]
     freq (   54) =       8.576907 [THz] =     286.094824 [cm-1]
     freq (   55) =       9.163715 [THz] =     305.668628 [cm-1]
     freq (   56) =       9.194538 [THz] =     306.696772 [cm-1]
     freq (   57) =       9.538301 [THz] =     318.163484 [cm-1]
     freq (   58) =       9.582104 [THz] =     319.624575 [cm-1]
     freq (   59) =      10.080751 [THz] =     336.257655 [cm-1]
     freq (   60) =      10.255718 [THz] =     342.093923 [cm-1]
     freq (   61) =      10.341208 [THz] =     344.945561 [cm-1]
     freq (   62) =      10.461651 [THz] =     348.963120 [cm-1]
     freq (   63) =      10.793650 [THz] =     360.037409 [cm-1]
     freq (   64) =      10.967005 [THz] =     365.819907 [cm-1]
     freq (   65) =      11.214807 [THz] =     374.085684 [cm-1]
     freq (   66) =      11.379188 [THz] =     379.568852 [cm-1]

     Mode symmetry, C_2h (2/m)  point group:

     freq (   1-   1) =         62.2  [cm-1]   --> B_u
     freq (   2-   2) =         67.6  [cm-1]   --> A_g
     freq (   3-   3) =         69.1  [cm-1]   --> A_u
     freq (   4-   4) =         69.2  [cm-1]   --> B_g
     freq (   5-   5) =         81.7  [cm-1]   --> B_u
     freq (   6-   6) =         82.7  [cm-1]   --> A_g
     freq (   7-   7) =         98.7  [cm-1]   --> B_g
     freq (   8-   8) =         98.7  [cm-1]   --> A_u
     freq (   9-   9) =        103.8  [cm-1]   --> A_u
     freq (  10-  10) =        107.1  [cm-1]   --> B_g
     freq (  11-  11) =        112.0  [cm-1]   --> A_g
     freq (  12-  12) =        112.3  [cm-1]   --> B_u
     freq (  13-  13) =        134.4  [cm-1]   --> B_g
     freq (  14-  14) =        138.7  [cm-1]   --> B_u
     freq (  15-  15) =        139.9  [cm-1]   --> A_u
     freq (  16-  16) =        141.0  [cm-1]   --> A_g
     freq (  17-  17) =        153.6  [cm-1]   --> B_g
     freq (  18-  18) =        159.6  [cm-1]   --> A_u
     freq (  19-  19) =        160.3  [cm-1]   --> A_g
     freq (  20-  20) =        162.3  [cm-1]   --> B_u
     freq (  21-  21) =        168.1  [cm-1]   --> B_u
     freq (  22-  22) =        170.2  [cm-1]   --> A_g
     freq (  23-  23) =        171.4  [cm-1]   --> B_u
     freq (  24-  24) =        177.3  [cm-1]   --> A_g
     freq (  25-  25) =        177.5  [cm-1]   --> B_g
     freq (  26-  26) =        178.4  [cm-1]   --> A_u
     freq (  27-  27) =        188.8  [cm-1]   --> A_g
     freq (  28-  28) =        190.0  [cm-1]   --> B_u
     freq (  29-  29) =        213.4  [cm-1]   --> B_u
     freq (  30-  30) =        215.0  [cm-1]   --> A_g
     freq (  31-  31) =        215.1  [cm-1]   --> B_g
     freq (  32-  32) =        215.1  [cm-1]   --> A_u
     freq (  33-  33) =        225.6  [cm-1]   --> A_g
     freq (  34-  34) =        226.5  [cm-1]   --> B_g
     freq (  35-  35) =        226.7  [cm-1]   --> B_u
     freq (  36-  36) =        228.2  [cm-1]   --> B_u
     freq (  37-  37) =        231.0  [cm-1]   --> A_u
     freq (  38-  38) =        232.3  [cm-1]   --> A_g
     freq (  39-  39) =        235.3  [cm-1]   --> B_g
     freq (  40-  40) =        237.2  [cm-1]   --> A_u
     freq (  41-  41) =        243.5  [cm-1]   --> B_u
     freq (  42-  42) =        250.2  [cm-1]   --> A_g
     freq (  43-  43) =        254.2  [cm-1]   --> B_u
     freq (  44-  44) =        254.6  [cm-1]   --> B_g
     freq (  45-  45) =        255.5  [cm-1]   --> A_u
     freq (  46-  46) =        260.4  [cm-1]   --> A_g
     freq (  47-  47) =        262.7  [cm-1]   --> B_u
     freq (  48-  48) =        271.4  [cm-1]   --> A_u
     freq (  49-  49) =        272.1  [cm-1]   --> B_g
     freq (  50-  50) =        272.8  [cm-1]   --> A_g
     freq (  51-  51) =        283.0  [cm-1]   --> B_g
     freq (  52-  52) =        285.3  [cm-1]   --> B_u
     freq (  53-  53) =        285.7  [cm-1]   --> A_g
     freq (  54-  54) =        286.1  [cm-1]   --> A_u
     freq (  55-  55) =        305.7  [cm-1]   --> B_g
     freq (  56-  56) =        306.7  [cm-1]   --> A_u
     freq (  57-  57) =        318.2  [cm-1]   --> B_u
     freq (  58-  58) =        319.6  [cm-1]   --> A_g
     freq (  59-  59) =        336.3  [cm-1]   --> B_u
     freq (  60-  60) =        342.1  [cm-1]   --> A_g
     freq (  61-  61) =        344.9  [cm-1]   --> B_g
     freq (  62-  62) =        349.0  [cm-1]   --> A_u
     freq (  63-  63) =        360.0  [cm-1]   --> A_g
     freq (  64-  64) =        365.8  [cm-1]   --> B_u
     freq (  65-  65) =        374.1  [cm-1]   --> B_u
     freq (  66-  66) =        379.6  [cm-1]   --> A_g

     INITIALIZATION:

     DYNAMICAL MATRIX:

                                        0.00s GPU  (    3888 calls)

                                        0.00s GPU  (     300 calls)

      General routines

      Additional routines
                                        0.00s GPU  (  176030 calls)
                                        0.00s GPU  (  176030 calls)

   This run was terminated on:   5:21: 4  12May2025

   JOB DONE.