     Program PWSCF v.7.3.1 starts on  7May2025 at 11:42:55

     Waiting for input...
     Reading input from standard input
Warning: card &CELL ignored
Warning: card / ignored
Warning: card &FCP ignored
Warning: card / ignored
Warning: card &RISM ignored
Warning: card / ignored

     Current dimensions of program PWSCF are:
     Max number of different atomic species (ntypx) = 10
     Max number of k-points (npk) =  40000
     Max angular momentum in pseudopotentials (lmaxx) =  4

     IMPORTANT: XC functional enforced from input :
     Exchange-correlation= PBE
                           (   1   4   3   4   0   0   0)
     Any further DFT definition will be discarded
     Please, verify this is what you really want

     Message from routine setup:
     using ibrav=0 with symmetry is DISCOURAGED, use correct ibrav instead

     K-points division:     npool     =      12
     R & G space division:  proc/nbgrp/npool/nimage =      32
     Subspace diagonalization in iterative solution of the eigenvalue problem:
     a serial algorithm will be used

     Using Slab Decomposition

     bravais-lattice index     =            0
     lattice parameter (alat)  =      12.7288  a.u.
     unit-cell volume          =    3256.0167 (a.u.)^3
     number of atoms/cell      =           22
     number of atomic types    =            2
     number of electrons       =       190.00
     number of Kohn-Sham states=          114
     kinetic-energy cutoff     =     100.0000  Ry
     charge density cutoff     =     400.0000  Ry
     scf convergence threshold =      1.0E-12
     mixing beta               =       0.7000
     number of iterations used =            8  plain     mixing
     Exchange-correlation= PBE
                           (   1   4   3   4   0   0   0)

     celldm(1)=  12.728776  celldm(2)=   0.000000  celldm(3)=   0.000000
     celldm(4)=   0.000000  celldm(5)=   0.000000  celldm(6)=   0.000000

     crystal axes: (cart. coord. in units of alat)
               a(1) = (   0.866025   0.500000   0.000000 )
               a(2) = (  -0.866025   0.500000   0.000000 )
               a(3) = (  -0.577350   0.000000   1.823039 )

     reciprocal axes: (cart. coord. in units 2 pi/alat)
               b(1) = (  0.577350  1.000000  0.182845 )
               b(2) = ( -0.577350  1.000000 -0.182845 )
               b(3) = (  0.000000 -0.000000  0.548535 )

     PseudoPot. # 1 for Nb read from file:
     /scratch-shared/mroesner/Nb3X8_cDFPT/pp/Nb_ONCV_PBE-1.2.upf
     MD5 check sum: 2c750ac0b6910ff4cf0ab5f6c4124a64
     Pseudo is Norm-conserving, Zval = 13.0
     Generated using ONCVPSP code by D. R. Hamann
     Using radial grid of  602 points,  6 beta functions with:
                l(1) =   0
                l(2) =   0
                l(3) =   1
                l(4) =   1
                l(5) =   2
                l(6) =   2

     PseudoPot. # 2 for Cl read from file:
     /scratch-shared/mroesner/Nb3X8_cDFPT/pp/Cl_ONCV_PBE-1.2.upf
     MD5 check sum: 0f993535b366f580ecbcdacce103c843
     Pseudo is Norm-conserving, Zval =  7.0
     Generated using ONCVPSP code by D. R. Hamann
     Using radial grid of  602 points,  4 beta functions with:
                l(1) =   0
                l(2) =   0
                l(3) =   1
                l(4) =   1

     atomic species   valence    mass     pseudopotential
     Nb               13.00    92.90637     Nb( 1.00)
     Cl                7.00    35.45270     Cl( 1.00)

     12 Sym. Ops., with inversion, found

                                    s                        frac. trans.

      isym =  1     identity

 cryst.   s( 1) = (     1          0          0      )
                  (     0          1          0      )
                  (     0          0          1      )

 cart.    s( 1) = (  1.0000000  0.0000000  0.0000000 )
                  ( -0.0000000  1.0000000  0.0000000 )
                  (  0.0000000  0.0000000  1.0000000 )

      isym =  2     180 deg rotation - cart. axis [0,1,0]

[...]

      isym =  3     120 deg rotation - cryst. axis [0,0,1]

[...]

      isym =  6     180 deg rotation - cryst. axis [2,1,0]

[...]

      isym =  7     inversion

[...]

      isym =  8     inv. 180 deg rotation - cart. axis [0,1,0]

[...]

      isym =  9     inv. 120 deg rotation - cryst. axis [0,0,1]

 cryst.   s( 9) = (     0         -1          0      )
                  (     1          1          0      )
                  (     0          1         -1      )

 cart.    s( 9) = (  0.5000000  0.8660254 -0.0000000 )
                  ( -0.8660254  0.5000000 -0.0000000 )
                  (  0.0000000  0.0000000 -1.0000000 )

[...]

 cryst.   s(10) = (     1          1          0      )
                  (    -1          0          0      )
                  (    -1          0         -1      )

 cart.    s(10) = (  0.5000000 -0.8660254 -0.0000000 )
                  (  0.8660254  0.5000000 -0.0000000 )
                  (  0.0000000  0.0000000 -1.0000000 )

[...]

      isym = 12     inv. 180 deg rotation - cryst. axis [2,1,0]

 cryst.   s(12) = (    -1          0          0      )
                  (     1          1          0      )
                  (     1          0          1      )

 cart.    s(12) = ( -0.5000000 -0.8660254  0.0000000 )
                  ( -0.8660254  0.5000000  0.0000000 )
                  (  0.0000000  0.0000000  1.0000000 )

   Cartesian axes

     site n.     atom                  positions (alat units)
         1        Nb     tau(   1) = (   0.2397773  -0.0000000  -0.4602555  )
         2        Nb     tau(   2) = (  -0.1198887   0.2076533  -0.4602555  )
         3        Nb     tau(   3) = (  -0.1198887  -0.2076533  -0.4602555  )
         4        Nb     tau(   4) = (  -0.2397773   0.0000000   0.4602555  )
         5        Nb     tau(   5) = (   0.1198887  -0.2076533   0.4602555  )
         6        Nb     tau(   6) = (   0.1198887   0.2076533   0.4602555  )
         7        Cl     tau(   7) = (  -0.0000000  -0.0000000  -0.7326469  )
         8        Cl     tau(   8) = (   0.8695054   0.0000000  -0.6624859  )
         9        Cl     tau(   9) = (   0.4312727   0.2530138  -0.6624859  )
        10        Cl     tau(  10) = (   0.4312727  -0.2530138  -0.6624859  )
        11        Cl     tau(  11) = (   0.5773503  -0.0000000  -0.2579735  )
        12        Cl     tau(  12) = (  -0.2865795   0.0000000  -0.2167955  )
        13        Cl     tau(  13) = (   0.1432898  -0.2481851  -0.2167955  )
        14        Cl     tau(  14) = (   0.1432898   0.2481851  -0.2167955  )
        15        Cl     tau(  15) = (   0.2865795  -0.0000000   0.2167955  )
        16        Cl     tau(  16) = (  -0.1432898   0.2481851   0.2167955  )
        17        Cl     tau(  17) = (  -0.1432898  -0.2481851   0.2167955  )
        18        Cl     tau(  18) = (  -0.5773503   0.0000000   0.2579735  )
        19        Cl     tau(  19) = (  -0.8695054  -0.0000000   0.6624859  )
        20        Cl     tau(  20) = (  -0.4312727  -0.2530138   0.6624859  )
        21        Cl     tau(  21) = (  -0.4312727   0.2530138   0.6624859  )
        22        Cl     tau(  22) = (   0.0000000   0.0000000   0.7326469  )

     DFT-D3 Dispersion Correction (no 3-body):
       Reference C6 values for interpolation:

         atom   Coordination number   C6
         Cl         0.000           184.69
         Cl         0.997           180.80
         Nb         0.000          2950.50
         Nb         1.954          1161.16
         Nb         2.922           857.79

       Values used:

         atom   Coordination number  R0_AB[au]  C6      C8
         Nb         8.273            3.647    857.79 111659.18
         Nb         8.273            3.647    857.79 111659.18
         Nb         8.273            3.647    857.79 111659.18
         Nb         8.273            3.647    857.79 111659.18
         Nb         8.273            3.647    857.79 111659.18
         Nb         8.273            3.647    857.79 111659.18
         Cl         3.219            2.933    180.80   7543.49
         Cl         2.296            2.933    180.80   7543.50
         Cl         2.296            2.933    180.80   7543.50
         Cl         2.296            2.933    180.80   7543.50
         Cl         3.113            2.933    180.80   7543.49
         Cl         2.311            2.933    180.80   7543.50
         Cl         2.311            2.933    180.80   7543.50
         Cl         2.311            2.933    180.80   7543.50
         Cl         2.311            2.933    180.80   7543.50
         Cl         2.311            2.933    180.80   7543.50
         Cl         2.311            2.933    180.80   7543.50
         Cl         3.113            2.933    180.80   7543.49
         Cl         2.296            2.933    180.80   7543.50
         Cl         2.296            2.933    180.80   7543.50
         Cl         2.296            2.933    180.80   7543.50
         Cl         3.219            2.933    180.80   7543.49

         Molecular C6 ( Ry / a.u.^6 ) =    150899.93

   Crystallographic axes

     site n.     atom                  positions (cryst. coord.)
         1        Nb     tau(   1) = (  0.0542802 -0.0542802 -0.2524660  )
         2        Nb     tau(   2) = (  0.0542802  0.3610264 -0.2524660  )
         3        Nb     tau(   3) = ( -0.3610264 -0.0542802 -0.2524660  )
         4        Nb     tau(   4) = ( -0.0542802  0.0542802  0.2524660  )
         5        Nb     tau(   5) = ( -0.0542802 -0.3610264  0.2524660  )
         6        Nb     tau(   6) = (  0.3610264  0.0542802  0.2524660  )
         7        Cl     tau(   7) = ( -0.1339607  0.1339607 -0.4018822  )
         8        Cl     tau(   8) = (  0.3808770 -0.3808770 -0.3633964  )
         9        Cl     tau(   9) = (  0.3808770  0.1251505 -0.3633964  )
        10        Cl     tau(  10) = ( -0.1251505 -0.3808770 -0.3633964  )
        11        Cl     tau(  11) = (  0.2861642 -0.2861642 -0.1415074  )
        12        Cl     tau(  12) = ( -0.2050967  0.2050967 -0.1189198  )
        13        Cl     tau(  13) = ( -0.2050967 -0.2912736 -0.1189198  )
        14        Cl     tau(  14) = (  0.2912736  0.2050967 -0.1189198  )
        15        Cl     tau(  15) = (  0.2050967 -0.2050967  0.1189198  )
        16        Cl     tau(  16) = (  0.2050967  0.2912736  0.1189198  )
        17        Cl     tau(  17) = ( -0.2912736 -0.2050967  0.1189198  )
        18        Cl     tau(  18) = ( -0.2861642  0.2861642  0.1415074  )
        19        Cl     tau(  19) = ( -0.3808770  0.3808770  0.3633964  )
        20        Cl     tau(  20) = ( -0.3808770 -0.1251505  0.3633964  )
        21        Cl     tau(  21) = (  0.1251505  0.3808770  0.3633964  )
        22        Cl     tau(  22) = (  0.1339607 -0.1339607  0.4018822  )

     number of k points=    32  Gaussian smearing, width (Ry)=  0.0037
                       cart. coord. in units 2pi/alat
        k(    1) = (   0.0000000   0.0000000   0.0000000), wk =   0.0092593
        k(    2) = (   0.0000000   0.0000000   0.0914224), wk =   0.0185185
        k(    3) = (   0.0000000   0.0000000   0.1828448), wk =   0.0185185
[...]
     atom    2 type  1   force =    -0.00006516    0.00011287   -0.00018205
     atom    3 type  1   force =    -0.00006516   -0.00011287   -0.00018205
     atom    4 type  1   force =    -0.00013033    0.00000000    0.00018205
     atom    5 type  1   force =     0.00006516   -0.00011287    0.00018205
     atom    6 type  1   force =     0.00006516    0.00011287    0.00018205
     atom    7 type  2   force =    -0.00000000   -0.00000000    0.00000111
     atom    8 type  2   force =    -0.00000279   -0.00000000    0.00008842
     atom    9 type  2   force =     0.00000139   -0.00000241    0.00008842
     atom   10 type  2   force =     0.00000139    0.00000241    0.00008842
     atom   11 type  2   force =     0.00000000   -0.00000000   -0.00001056
     atom   12 type  2   force =    -0.00002051    0.00000000    0.00003173
     atom   13 type  2   force =     0.00001026   -0.00001776    0.00003173
     atom   14 type  2   force =     0.00001026    0.00001776    0.00003173
     atom   15 type  2   force =     0.00002051   -0.00000000   -0.00003173
     atom   16 type  2   force =    -0.00001026    0.00001776   -0.00003173
     atom   17 type  2   force =    -0.00001026   -0.00001776   -0.00003173
     atom   18 type  2   force =    -0.00000000   -0.00000000    0.00001056
     atom   19 type  2   force =     0.00000279    0.00000000   -0.00008842
     atom   20 type  2   force =    -0.00000139    0.00000241   -0.00008842
     atom   21 type  2   force =    -0.00000139   -0.00000241   -0.00008842
     atom   22 type  2   force =     0.00000000    0.00000000   -0.00000111
     The non-local contrib.  to forces
     atom    1 type  1   force =    -0.23426668    0.00000000   -0.03896729
     atom    2 type  1   force =     0.11713334   -0.20288090   -0.03896729
     atom    3 type  1   force =     0.11713334    0.20288090   -0.03896729
     atom    4 type  1   force =     0.23426668   -0.00000000    0.03896729
     atom    5 type  1   force =    -0.11713334    0.20288090    0.03896729
     atom    6 type  1   force =    -0.11713334   -0.20288090    0.03896729
     atom    7 type  2   force =     0.00000000   -0.00000000    0.46319378
     atom    8 type  2   force =    -0.18403206    0.00000000    0.28107783
     atom    9 type  2   force =     0.09201603   -0.15937644    0.28107783
     atom   10 type  2   force =     0.09201603    0.15937644    0.28107783
     atom   11 type  2   force =    -0.00000000    0.00000000   -0.35098317
     atom   12 type  2   force =     0.19998015    0.00000000   -0.28505645
     atom   13 type  2   force =    -0.09999008    0.17318789   -0.28505645
     atom   14 type  2   force =    -0.09999008   -0.17318789   -0.28505645
     atom   15 type  2   force =    -0.19998015   -0.00000000    0.28505645
     atom   16 type  2   force =     0.09999008   -0.17318789    0.28505645
     atom   17 type  2   force =     0.09999008    0.17318789    0.28505645
     atom   18 type  2   force =     0.00000000   -0.00000000    0.35098317
     atom   19 type  2   force =     0.18403206   -0.00000000   -0.28107783
     atom   20 type  2   force =    -0.09201603    0.15937644   -0.28107783
     atom   21 type  2   force =    -0.09201603   -0.15937644   -0.28107783
     atom   22 type  2   force =     0.00000000   -0.00000000   -0.46319378
     The ionic contribution  to forces
     atom    1 type  1   force =     9.31206717    0.00000000   -0.27125129
     atom    2 type  1   force =    -4.65603358    8.06448674   -0.27125128
     atom    3 type  1   force =    -4.65603358   -8.06448674   -0.27125128
     atom    4 type  1   force =    -9.31206717   -0.00000000    0.27125129
     atom    5 type  1   force =     4.65603358   -8.06448674    0.27125128
     atom    6 type  1   force =     4.65603358    8.06448674    0.27125128
     atom    7 type  2   force =     0.00000000   -0.00000000  -14.32244284
     atom    8 type  2   force =     4.00004427    0.00000000   -8.11156155
     atom    9 type  2   force =    -2.00002214    3.46413995   -8.11156155
     atom   10 type  2   force =    -2.00002214   -3.46413995   -8.11156155
     atom   11 type  2   force =     0.00000000    0.00000000    9.68116341
     atom   12 type  2   force =    -6.82504865    0.00000000   10.09421943
     atom   13 type  2   force =     3.41252432   -5.91066551   10.09421943
     atom   14 type  2   force =     3.41252432    5.91066551   10.09421943
     atom   15 type  2   force =     6.82504865   -0.00000000  -10.09421943
     atom   16 type  2   force =    -3.41252432    5.91066551  -10.09421943
     atom   17 type  2   force =    -3.41252432   -5.91066551  -10.09421943
     atom   18 type  2   force =    -0.00000000   -0.00000000   -9.68116341
     atom   19 type  2   force =    -4.00004427   -0.00000000    8.11156155
     atom   20 type  2   force =     2.00002214   -3.46413995    8.11156155
     atom   21 type  2   force =     2.00002214    3.46413995    8.11156155
     atom   22 type  2   force =    -0.00000000    0.00000000   14.32244284
     The local contribution  to forces
     atom    1 type  1   force =    -9.07549932    0.00000000    0.31009394
     atom    2 type  1   force =     4.53774960   -7.85961293    0.31009394
     atom    3 type  1   force =     4.53774960    7.85961293    0.31009394
     atom    4 type  1   force =     9.07549932   -0.00000000   -0.31009394
     atom    5 type  1   force =    -4.53774960    7.85961293   -0.31009394
     atom    6 type  1   force =    -4.53774960   -7.85961293   -0.31009394
     atom    7 type  2   force =     0.00000001    0.00000000   13.86014865
     atom    8 type  2   force =    -3.81653958   -0.00000000    7.83136916
     atom    9 type  2   force =     1.90826977   -3.30522022    7.83136916
     atom   10 type  2   force =     1.90826977    3.30522022    7.83136916
     atom   11 type  2   force =     0.00000000    0.00000000   -9.33209966
     atom   12 type  2   force =     6.62598504   -0.00000000   -9.80952909
     atom   13 type  2   force =    -3.31299253    5.73827137   -9.80952909
     atom   14 type  2   force =    -3.31299253   -5.73827137   -9.80952909
     atom   15 type  2   force =    -6.62598504    0.00000000    9.80952909
     atom   16 type  2   force =     3.31299253   -5.73827137    9.80952909
     atom   17 type  2   force =     3.31299253    5.73827137    9.80952909
     atom   18 type  2   force =    -0.00000000   -0.00000000    9.33209966
     atom   19 type  2   force =     3.81653958    0.00000000   -7.83136916
     atom   20 type  2   force =    -1.90826977    3.30522022   -7.83136916
     atom   21 type  2   force =    -1.90826977   -3.30522022   -7.83136916
     atom   22 type  2   force =    -0.00000001   -0.00000000  -13.86014865
     The core correction contribution to forces
     atom    1 type  1   force =     0.00000000    0.00000000    0.00000000
     atom    2 type  1   force =     0.00000000    0.00000000    0.00000000
     atom    3 type  1   force =     0.00000000    0.00000000    0.00000000
     atom    4 type  1   force =     0.00000000    0.00000000    0.00000000
     atom    5 type  1   force =     0.00000000    0.00000000    0.00000000
     atom    6 type  1   force =     0.00000000    0.00000000    0.00000000
     atom    7 type  2   force =     0.00000000    0.00000000    0.00000000
     atom    8 type  2   force =     0.00000000    0.00000000    0.00000000
     atom    9 type  2   force =     0.00000000    0.00000000    0.00000000
     atom   10 type  2   force =     0.00000000    0.00000000    0.00000000
     atom   11 type  2   force =     0.00000000    0.00000000    0.00000000
     atom   12 type  2   force =     0.00000000    0.00000000    0.00000000
     atom   13 type  2   force =     0.00000000    0.00000000    0.00000000
     atom   14 type  2   force =     0.00000000    0.00000000    0.00000000
     atom   15 type  2   force =     0.00000000    0.00000000    0.00000000
     atom   16 type  2   force =     0.00000000    0.00000000    0.00000000
     atom   17 type  2   force =     0.00000000    0.00000000    0.00000000
     atom   18 type  2   force =     0.00000000    0.00000000    0.00000000
     atom   19 type  2   force =     0.00000000    0.00000000    0.00000000
     atom   20 type  2   force =     0.00000000    0.00000000    0.00000000
     atom   21 type  2   force =     0.00000000    0.00000000    0.00000000
     atom   22 type  2   force =     0.00000000    0.00000000    0.00000000
     The Hubbard contrib.    to forces
     atom    1 type  1   force =     0.00000000    0.00000000    0.00000000
     atom    2 type  1   force =     0.00000000    0.00000000    0.00000000
     atom    3 type  1   force =     0.00000000    0.00000000    0.00000000
     atom    4 type  1   force =     0.00000000    0.00000000    0.00000000
     atom    5 type  1   force =     0.00000000    0.00000000    0.00000000
     atom    6 type  1   force =     0.00000000    0.00000000    0.00000000
     atom    7 type  2   force =     0.00000000    0.00000000    0.00000000
     atom    8 type  2   force =     0.00000000    0.00000000    0.00000000
     atom    9 type  2   force =     0.00000000    0.00000000    0.00000000
     atom   10 type  2   force =     0.00000000    0.00000000    0.00000000
     atom   11 type  2   force =     0.00000000    0.00000000    0.00000000
     atom   12 type  2   force =     0.00000000    0.00000000    0.00000000
     atom   13 type  2   force =     0.00000000    0.00000000    0.00000000
     atom   14 type  2   force =     0.00000000    0.00000000    0.00000000
     atom   15 type  2   force =     0.00000000    0.00000000    0.00000000
     atom   16 type  2   force =     0.00000000    0.00000000    0.00000000
     atom   17 type  2   force =     0.00000000    0.00000000    0.00000000
     atom   18 type  2   force =     0.00000000    0.00000000    0.00000000
     atom   19 type  2   force =     0.00000000    0.00000000    0.00000000
     atom   20 type  2   force =     0.00000000    0.00000000    0.00000000
     atom   21 type  2   force =     0.00000000    0.00000000    0.00000000
     atom   22 type  2   force =     0.00000000    0.00000000    0.00000000
     The SCF correction term to forces
     atom    1 type  1   force =     0.00000007   -0.00000000    0.00000037
     atom    2 type  1   force =    -0.00000004    0.00000006    0.00000037
     atom    3 type  1   force =    -0.00000004   -0.00000006    0.00000037
     atom    4 type  1   force =    -0.00000007    0.00000000   -0.00000037
     atom    5 type  1   force =     0.00000004   -0.00000006   -0.00000037
     atom    6 type  1   force =     0.00000004    0.00000006   -0.00000037
     atom    7 type  2   force =    -0.00000000   -0.00000000    0.00000085
     atom    8 type  2   force =    -0.00000057    0.00000000    0.00000084
     atom    9 type  2   force =     0.00000028   -0.00000049    0.00000084
     atom   10 type  2   force =     0.00000028    0.00000049    0.00000084
     atom   11 type  2   force =     0.00000000    0.00000000   -0.00000038
     atom   12 type  2   force =     0.00000005    0.00000000   -0.00000028
     atom   13 type  2   force =    -0.00000002    0.00000004   -0.00000028
     atom   14 type  2   force =    -0.00000002   -0.00000004   -0.00000028
     atom   15 type  2   force =    -0.00000005   -0.00000000    0.00000028
     atom   16 type  2   force =     0.00000002   -0.00000004    0.00000028
     atom   17 type  2   force =     0.00000002    0.00000004    0.00000028
     atom   18 type  2   force =    -0.00000000   -0.00000000    0.00000038
     atom   19 type  2   force =     0.00000057   -0.00000000   -0.00000084
     atom   20 type  2   force =    -0.00000028    0.00000049   -0.00000084
     atom   21 type  2   force =    -0.00000028   -0.00000049   -0.00000084
     atom   22 type  2   force =     0.00000000   -0.00000000   -0.00000085

     DFT-D3 dispersion contribution to forces:
     atom    1 type  1   force =    -0.00217095   -0.00000000   -0.00005779
     atom    2 type  1   force =     0.00108548   -0.00188010   -0.00005779
     atom    3 type  1   force =     0.00108548    0.00188010   -0.00005779
     atom    4 type  1   force =     0.00217095    0.00000000    0.00005779
     atom    5 type  1   force =    -0.00108548    0.00188010    0.00005779
     atom    6 type  1   force =    -0.00108548   -0.00188010    0.00005779
     atom    7 type  2   force =     0.00000000   -0.00000000   -0.00089933
     atom    8 type  2   force =     0.00052515   -0.00000000   -0.00079786
     atom    9 type  2   force =    -0.00026257    0.00045479   -0.00079786
     atom   10 type  2   force =    -0.00026257   -0.00045479   -0.00079786
     atom   11 type  2   force =     0.00000000   -0.00000000    0.00190924
     atom   12 type  2   force =    -0.00093711    0.00000000    0.00039812
     atom   13 type  2   force =     0.00046855   -0.00081156    0.00039812
     atom   14 type  2   force =     0.00046855    0.00081156    0.00039812
     atom   15 type  2   force =     0.00093711   -0.00000000   -0.00039812
     atom   16 type  2   force =    -0.00046855    0.00081156   -0.00039812
     atom   17 type  2   force =    -0.00046855   -0.00081156   -0.00039812
     atom   18 type  2   force =    -0.00000000    0.00000000   -0.00190924
     atom   19 type  2   force =    -0.00052515    0.00000000    0.00079786
     atom   20 type  2   force =     0.00026257   -0.00045479    0.00079786
     atom   21 type  2   force =     0.00026257    0.00045479    0.00079786
     atom   22 type  2   force =    -0.00000000    0.00000000    0.00089933

     Total force =     0.000597     Total SCF correction =     0.000003

     DFT-D3 dispersion Force =     0.006993

     Computing stress (Cartesian axis) and pressure

          total   stress  (Ry/bohr**3)                   (kbar)     P=        3.74
   0.00003331   0.00000000  -0.00000000            4.90        0.00       -0.00
   0.00000000   0.00003331   0.00000000            0.00        4.90        0.00
  -0.00000000   0.00000000   0.00000967           -0.00        0.00        1.42

     kinetic stress (kbar)  11724.06      0.00      0.00
                                0.00  11724.06      0.00
                               -0.00      0.00  11631.60

     local   stress (kbar) -18911.48      0.00     -0.00
                                0.00 -18911.48      0.00
                               -0.00      0.00   -747.99

     nonloc. stress (kbar)  10660.50     -0.00      0.00
                               -0.00  10660.50     -0.00
                                0.00     -0.00  10694.31

     hartree stress (kbar)   7621.80      0.00     -0.00
                                0.00   7621.80     -0.00
                               -0.00     -0.00   -349.72

     exc-cor stress (kbar)  -2482.43      0.00     -0.00
                                0.00  -2482.43      0.00
                               -0.00      0.00  -2485.77

     corecor stress (kbar)      0.00      0.00      0.00
                                0.00      0.00      0.00
                                0.00      0.00      0.00

     ewald   stress (kbar)  -8592.91      0.00      0.00
                                0.00  -8592.91      0.00
                                0.00      0.00 -18722.95

     hubbard stress (kbar)      0.00      0.00      0.00
                                0.00      0.00      0.00
                                0.00      0.00      0.00

     DFT-D   stress (kbar)    -14.65      0.00      0.00
                                0.00    -14.65     -0.00
                                0.00     -0.00    -18.05

     XDM     stress (kbar)      0.00      0.00      0.00
                                0.00      0.00      0.00
                                0.00      0.00      0.00

     dft-nl  stress (kbar)      0.00      0.00      0.00
                                0.00      0.00      0.00
                                0.00      0.00      0.00

     TS-vdW  stress (kbar)      0.00      0.00      0.00
                                0.00      0.00      0.00
                                0.00      0.00      0.00

     MDB     stress (kbar)      0.00      0.00      0.00
                                0.00      0.00      0.00
                                0.00      0.00      0.00

     3D-RISM stress (kbar)      0.00      0.00      0.00
                                0.00      0.00      0.00
                                0.00      0.00      0.00

     Writing all to output data dir ./out/Nb3Cl8.save/ :
     XML data file, charge density, pseudopotentials, collected wavefunctions

     General routines

     Parallel routines

   This run was terminated on:  11:45:19   7May2025

   JOB DONE.