     Program PHONON v.7.4.1 starts on 30May2025 at 12: 8:57

     Waiting for input...
     Reading input from standard input
     Run is not recoverable starting from scratch

     Reading xml data from directory:

     ./out/Nb3F8.save/

     K-points division:     npool     =      12
     R & G space division:  proc/nbgrp/npool/nimage =      32
     Subspace diagonalization in iterative solution of the eigenvalue problem:
     a serial algorithm will be used

     IMPORTANT: XC functional enforced from input :
     Exchange-correlation= PBE
                           (   1   4   3   4   0   0   0)
     Any further DFT definition will be discarded
     Please, verify this is what you really want

     Using Slab Decomposition

     Reading collected, re-writing distributed wavefunctions in ./out/

     cDFPT active subspace:
     Complete band 95
     Complete band 96

     Dynamical matrices for ( 2, 2, 2)  uniform grid of q-points
     (   4 q-points):
       N         xq(1)         xq(2)         xq(3)
       1   0.000000000   0.000000000   0.000000000
       2   0.000000000   0.000000000  -0.303645024
       3   0.288675135  -0.500000000   0.101215008
       4   0.288675135  -0.500000000  -0.202430016

     Number and degeneracy of irreps per q-point
       N         xq(1)         xq(2)         xq(3)   N irreps
       1   0.000000000   0.000000000   0.000000000      44
        1   1   1   1   1   1   1   1   1   1   1   2   2   2   2   2   2   2
   2   2   2   2   1   1   1   1   1   1   1   1   1   1   1   2   2   2
   2   2   2   2   2   2   2   2
       2   0.000000000   0.000000000  -0.303645024      44
        1   1   1   1   1   1   1   1   1   1   1   2   2   2   2   2   2   2
   2   2   2   2   1   1   1   1   1   1   1   1   1   1   1   2   2   2
   2   2   2   2   2   2   2   2
       3   0.288675135  -0.500000000   0.101215008      66
     No degeneracy
       4   0.288675135  -0.500000000  -0.202430016      66
     No degeneracy

     Saving dvscf to file. Distribute only q points, not irreducible representations.

     Calculation of q =    0.0000000   0.0000000   0.0000000

     Nb3F8

     bravais-lattice index     =            0
     lattice parameter (alat)  =      11.1557  a.u.
     unit-cell volume          =    1979.8333 (a.u.)^3
     number of atoms/cell      =           22
     number of atomic types    =            2
     kinetic-energy cut-off    =     100.0000  Ry
     charge density cut-off    =     400.0000  Ry
     convergence threshold     =      1.0E-16
     beta                      =       0.7000
     number of iterations used =            4
     Exchange-correlation= PBE
                           (   1   4   3   4   0   0   0)

     celldm(1)=   11.15573  celldm(2)=    0.00000  celldm(3)=    0.00000
     celldm(4)=    0.00000  celldm(5)=    0.00000  celldm(6)=    0.00000

     crystal axes: (cart. coord. in units of alat)
               a(1) = (  0.8660  0.5000  0.0000 )
               a(2) = ( -0.8660  0.5000  0.0000 )
               a(3) = ( -0.5774  0.0000  1.6467 )

     reciprocal axes: (cart. coord. in units 2 pi/alat)
               b(1) = (  0.5774  1.0000  0.2024 )
               b(2) = ( -0.5774  1.0000 -0.2024 )
               b(3) = (  0.0000 -0.0000  0.6073 )

     Atoms inside the unit cell:

     Cartesian axes

     site n.  atom      mass           positions (alat units)
        1  Nb     92.9064   tau(    1) = (    0.25220    0.00000   -0.41166  )
        2  Nb     92.9064   tau(    2) = (   -0.12610    0.21841   -0.41166  )
        3  Nb     92.9064   tau(    3) = (   -0.12610   -0.21841   -0.41166  )
        4  Nb     92.9064   tau(    4) = (   -0.25220   -0.00000    0.41166  )
        5  Nb     92.9064   tau(    5) = (    0.12610   -0.21841    0.41166  )
        6  Nb     92.9064   tau(    6) = (    0.12610    0.21841    0.41166  )
        7  F      18.9984   tau(    7) = (    0.00000    0.00000   -0.67560  )
        8  F      18.9984   tau(    8) = (    0.85697    0.00000   -0.59581  )
        9  F      18.9984   tau(    9) = (    0.43754    0.24216   -0.59581  )
       10  F      18.9984   tau(   10) = (    0.43754   -0.24216   -0.59581  )
       11  F      18.9984   tau(   11) = (    0.57735    0.00000   -0.22131  )
       12  F      18.9984   tau(   12) = (   -0.28359    0.00000   -0.18697  )
       13  F      18.9984   tau(   13) = (    0.14179   -0.24560   -0.18697  )
       14  F      18.9984   tau(   14) = (    0.14179    0.24560   -0.18697  )
       15  F      18.9984   tau(   15) = (    0.28359   -0.00000    0.18697  )
       16  F      18.9984   tau(   16) = (   -0.14179    0.24560    0.18697  )
       17  F      18.9984   tau(   17) = (   -0.14179   -0.24560    0.18697  )
       18  F      18.9984   tau(   18) = (   -0.57735    0.00000    0.22131  )
       19  F      18.9984   tau(   19) = (   -0.85697   -0.00000    0.59581  )
       20  F      18.9984   tau(   20) = (   -0.43754   -0.24216    0.59581  )
       21  F      18.9984   tau(   21) = (   -0.43754    0.24216    0.59581  )
       22  F      18.9984   tau(   22) = (   -0.00000    0.00000    0.67560  )

     Computing dynamical matrix for
                    q = (   0.0000000   0.0000000   0.0000000 )

     13 Sym.Ops. (with q -> -q+G )

     G cutoff = 1260.9456  (   8359 G-vectors)     FFT grid: (180,180,180)

     number of k points=    32  Gaussian smearing, width (Ry)=  0.0037

     PseudoPot. # 1 for Nb read from file:
     /scratch-shared/mroesner/Nb3X8_cDFPT/pp/Nb_ONCV_PBE-1.2.upf
     MD5 check sum: 2c750ac0b6910ff4cf0ab5f6c4124a64
     Pseudo is Norm-conserving, Zval = 13.0
     Generated using ONCVPSP code by D. R. Hamann
     Using radial grid of  602 points,  6 beta functions with:
                l(1) =   0
                l(2) =   0
                l(3) =   1
                l(4) =   1
                l(5) =   2
                l(6) =   2

     PseudoPot. # 2 for F  read from file:
     /scratch-shared/mroesner/Nb3X8_cDFPT/pp/F_ONCV_PBE-1.2.upf
     MD5 check sum: 1d8275f47d602dd53cad6bcdc0eda7dc
     Pseudo is Norm-conserving, Zval =  7.0
     Generated using ONCVPSP code by D. R. Hamann
     Using radial grid of  602 points,  4 beta functions with:
                l(1) =   0
                l(2) =   0
                l(3) =   1
                l(4) =   1

     Mode symmetry, D_3d (-3m)  point group:

     Electric field:
     Dielectric constant
     Born effective charges in two ways

     Atomic displacements:
     There are   44 irreducible representations

     Representation     1      1 modes -  To be done

[...]

     Alpha used in Ewald sum =   2.8000

     Reading Grimme-D3 Hessian from file: ./out/Nb3F8.hess

     Number of cells replicated along each semiaxis:   10  10   6
     Number of cells in the supercell:      5733
     Number of atoms in the supercell:    126126
     Hessian allocation dimension:  24972948

     Grimme-D3 Hessian read

     Computing dynamical matrix for q:     0.000000    0.000000    0.000000

     Writing Hessian on file dynamical.false.dat

     Dynamical matrix computed

     Electric Fields Calculation

      thresh= 1.000E-02 alpha_mix =  0.700 |ddv_scf|^2 =  1.326E-07

[...]

     End of electric fields calculation

          Dielectric constant in cartesian axis

          (       4.499618917       0.000000000       0.000000000 )
          (       0.000000000       4.499618917       0.000000000 )
          (       0.000000000       0.000000000       2.389243615 )

          Effective charges (d Force / dE) in cartesian axis without acoustic sum rule applied (asr)

           atom    1  Nb    Mean Z*:        2.91673
      Ex  (        3.84229       -0.00000       -0.85053 )
      Ey  (       -0.00000        2.71050        0.00000 )
      Ez  (       -0.34523       -0.00000        2.19741 )
           atom    2  Nb    Mean Z*:        2.91673
      Ex  (        2.99345       -0.49008        0.42527 )
      Ey  (       -0.49008        3.55934       -0.73658 )
      Ez  (        0.17262       -0.29898        2.19741 )
           atom    3  Nb    Mean Z*:        2.91673
      Ex  (        2.99345        0.49008        0.42527 )
      Ey  (        0.49008        3.55934        0.73658 )
      Ez  (        0.17262        0.29898        2.19741 )
           atom    4  Nb    Mean Z*:        2.91673
      Ex  (        3.84229        0.00000       -0.85053 )
      Ey  (        0.00000        2.71050        0.00000 )
      Ez  (       -0.34523        0.00000        2.19741 )
           atom    5  Nb    Mean Z*:        2.91673
      Ex  (        2.99345       -0.49008        0.42527 )
      Ey  (       -0.49008        3.55934       -0.73658 )
      Ez  (        0.17262       -0.29898        2.19741 )
           atom    6  Nb    Mean Z*:        2.91673
      Ex  (        2.99345        0.49008        0.42527 )
      Ey  (        0.49008        3.55934        0.73658 )
      Ez  (        0.17262        0.29898        2.19741 )
           atom    7  F     Mean Z*:       -0.47508
      Ex  (       -0.23320        0.00000       -0.00000 )
      Ey  (        0.00000       -0.23320        0.00000 )
      Ez  (       -0.00000        0.00000       -0.95883 )
           atom    8  F     Mean Z*:       -1.38006
      Ex  (       -0.49131        0.00000        0.05784 )
      Ey  (        0.00000       -2.96474       -0.00000 )
      Ez  (        0.09163       -0.00000       -0.68413 )
           atom    9  F     Mean Z*:       -1.38006
      Ex  (       -2.34638       -1.07103       -0.02892 )
      Ey  (       -1.07103       -1.10967        0.05009 )
      Ez  (       -0.04581        0.07935       -0.68413 )
           atom   10  F     Mean Z*:       -1.38006
      Ex  (       -2.34638        1.07103       -0.02892 )
      Ey  (        1.07103       -1.10967       -0.05009 )
      Ez  (       -0.04581       -0.07935       -0.68413 )
           atom   11  F     Mean Z*:       -1.51913
      Ex  (       -1.98794        0.00000        0.00000 )
      Ey  (        0.00000       -1.98794        0.00000 )
      Ez  (        0.00000        0.00000       -0.58152 )
           atom   12  F     Mean Z*:       -0.69931
      Ex  (       -0.83158        0.00000        0.41065 )
      Ey  (       -0.00000       -0.43384       -0.00000 )
      Ez  (        0.29659       -0.00000       -0.83252 )
           atom   13  F     Mean Z*:       -0.69931
      Ex  (       -0.53328        0.17223       -0.20532 )
      Ey  (        0.17223       -0.73215        0.35563 )
      Ez  (       -0.14829        0.25685       -0.83252 )
           atom   14  F     Mean Z*:       -0.69931
      Ex  (       -0.53328       -0.17223       -0.20532 )
      Ey  (       -0.17223       -0.73215       -0.35563 )
      Ez  (       -0.14829       -0.25685       -0.83252 )
           atom   15  F     Mean Z*:       -0.69931
      Ex  (       -0.83158        0.00000        0.41065 )
      Ey  (       -0.00000       -0.43384       -0.00000 )
      Ez  (        0.29659        0.00000       -0.83252 )
           atom   16  F     Mean Z*:       -0.69931
      Ex  (       -0.53328        0.17223       -0.20532 )
      Ey  (        0.17223       -0.73215        0.35563 )
[...]
        21        F      tau(  21) = (  -0.4375391   0.2421601   0.5958059  )
        22        F      tau(  22) = (  -0.0000000   0.0000000   0.6755959  )

     DFT-D3 Dispersion Correction (no 3-body):
       Reference C6 values for interpolation:

         atom   Coordination number   C6
         F          0.000            19.38
         F          0.998            14.27
         Nb         0.000          2950.50
         Nb         1.954          1161.16
         Nb         2.922           857.79

       Values used:

         atom   Coordination number  R0_AB[au]  C6      C8
         Nb         9.493            3.647    857.79 111659.18
         Nb         9.493            3.647    857.79 111659.18
         Nb         9.493            3.647    857.79 111659.18
         Nb         9.493            3.647    857.79 111659.18
         Nb         9.493            3.647    857.79 111659.18
         Nb         9.493            3.647    857.79 111659.18
         F          2.947            2.173     14.27    244.15
         F          2.035            2.173     14.27    244.15
         F          2.035            2.173     14.27    244.15
         F          2.035            2.173     14.27    244.15
         F          2.863            2.173     14.27    244.15
         F          2.050            2.173     14.27    244.15
         F          2.050            2.173     14.27    244.15
         F          2.050            2.173     14.27    244.15
         F          2.050            2.173     14.27    244.15
         F          2.050            2.173     14.27    244.15
         F          2.050            2.173     14.27    244.15
         F          2.863            2.173     14.27    244.15
         F          2.035            2.173     14.27    244.15
         F          2.035            2.173     14.27    244.15
         F          2.035            2.173     14.27    244.15
         F          2.947            2.173     14.27    244.15

         Molecular C6 ( Ry / a.u.^6 ) =     52655.74

[...]

     Number of k-points >= 100: set verbosity='high' to print them.

     The potential is recalculated from file :
     ./out/_ph0/Nb3F8.q_4/Nb3F8.save/charge-density

     Starting wfcs are    0 atomic +  114 random wfcs

     Band Structure Calculation
     CG style diagonalization
     c_bands:  1 eigenvalues not converged
     c_bands:  1 eigenvalues not converged
     c_bands:  1 eigenvalues not converged
     c_bands:  3 eigenvalues not converged
     c_bands:  4 eigenvalues not converged

     ethr =  5.26E-12,  avg # of iterations = 71.0

     End of band structure calculation

     Number of k-points >= 100: set verbosity='high' to print the bands.

     the Fermi energy is     9.3846 ev

     Writing config to output data dir ./out/_ph0/Nb3F8.q_4/Nb3F8.save/ :
     XML data file

     Nb3F8

     bravais-lattice index     =            0
     lattice parameter (alat)  =      11.1557  a.u.
     unit-cell volume          =    1979.8333 (a.u.)^3
     number of atoms/cell      =           22
     number of atomic types    =            2
     kinetic-energy cut-off    =     100.0000  Ry
     charge density cut-off    =     400.0000  Ry
     convergence threshold     =      1.0E-16
     beta                      =       0.7000
     number of iterations used =            4
     Exchange-correlation= PBE
                           (   1   4   3   4   0   0   0)

     celldm(1)=   11.15573  celldm(2)=    0.00000  celldm(3)=    0.00000
     celldm(4)=    0.00000  celldm(5)=    0.00000  celldm(6)=    0.00000

     crystal axes: (cart. coord. in units of alat)
               a(1) = (  0.8660  0.5000  0.0000 )
               a(2) = ( -0.8660  0.5000  0.0000 )
               a(3) = ( -0.5774  0.0000  1.6467 )

     reciprocal axes: (cart. coord. in units 2 pi/alat)
               b(1) = (  0.5774  1.0000  0.2024 )
               b(2) = ( -0.5774  1.0000 -0.2024 )
               b(3) = (  0.0000 -0.0000  0.6073 )

     Atoms inside the unit cell:

     Cartesian axes

     site n.  atom      mass           positions (alat units)
        1  Nb     92.9064   tau(    1) = (    0.25220    0.00000   -0.41166  )
        2  Nb     92.9064   tau(    2) = (   -0.12610    0.21841   -0.41166  )
        3  Nb     92.9064   tau(    3) = (   -0.12610   -0.21841   -0.41166  )
        4  Nb     92.9064   tau(    4) = (   -0.25220   -0.00000    0.41166  )
        5  Nb     92.9064   tau(    5) = (    0.12610   -0.21841    0.41166  )
        6  Nb     92.9064   tau(    6) = (    0.12610    0.21841    0.41166  )
        7  F      18.9984   tau(    7) = (    0.00000    0.00000   -0.67560  )
        8  F      18.9984   tau(    8) = (    0.85697    0.00000   -0.59581  )
        9  F      18.9984   tau(    9) = (    0.43754    0.24216   -0.59581  )
       10  F      18.9984   tau(   10) = (    0.43754   -0.24216   -0.59581  )
       11  F      18.9984   tau(   11) = (    0.57735    0.00000   -0.22131  )
       12  F      18.9984   tau(   12) = (   -0.28359    0.00000   -0.18697  )
       13  F      18.9984   tau(   13) = (    0.14179   -0.24560   -0.18697  )
       14  F      18.9984   tau(   14) = (    0.14179    0.24560   -0.18697  )
       15  F      18.9984   tau(   15) = (    0.28359   -0.00000    0.18697  )
       16  F      18.9984   tau(   16) = (   -0.14179    0.24560    0.18697  )
       17  F      18.9984   tau(   17) = (   -0.14179   -0.24560    0.18697  )
       18  F      18.9984   tau(   18) = (   -0.57735    0.00000    0.22131  )
       19  F      18.9984   tau(   19) = (   -0.85697   -0.00000    0.59581  )
       20  F      18.9984   tau(   20) = (   -0.43754   -0.24216    0.59581  )
       21  F      18.9984   tau(   21) = (   -0.43754    0.24216    0.59581  )
       22  F      18.9984   tau(   22) = (   -0.00000    0.00000    0.67560  )

     Computing dynamical matrix for
                    q = (   0.2886751  -0.5000000  -0.2024300 )

      5 Sym.Ops. (with q -> -q+G )

     G cutoff = 1260.9456  (   8359 G-vectors)     FFT grid: (180,180,180)

     number of k points=   136  Gaussian smearing, width (Ry)=  0.0037

     PseudoPot. # 1 for Nb read from file:
     /scratch-shared/mroesner/Nb3X8_cDFPT/pp/Nb_ONCV_PBE-1.2.upf
     MD5 check sum: 2c750ac0b6910ff4cf0ab5f6c4124a64
     Pseudo is Norm-conserving, Zval = 13.0
     Generated using ONCVPSP code by D. R. Hamann
     Using radial grid of  602 points,  6 beta functions with:
                l(1) =   0
                l(2) =   0
                l(3) =   1
                l(4) =   1
                l(5) =   2
                l(6) =   2

     PseudoPot. # 2 for F  read from file:
     /scratch-shared/mroesner/Nb3X8_cDFPT/pp/F_ONCV_PBE-1.2.upf
     MD5 check sum: 1d8275f47d602dd53cad6bcdc0eda7dc
     Pseudo is Norm-conserving, Zval =  7.0
     Generated using ONCVPSP code by D. R. Hamann
     Using radial grid of  602 points,  4 beta functions with:
                l(1) =   0
                l(2) =   0
                l(3) =   1
                l(4) =   1

[...]

     Atomic displacements:
     There are   66 irreducible representations

[...]

     Representation    66      1 modes -  To be done

     Alpha used in Ewald sum =   2.8000

     Reading Grimme-D3 Hessian from file: ./out/Nb3F8.hess

     Number of cells replicated along each semiaxis:   10  10   6
     Number of cells in the supercell:      5733
     Number of atoms in the supercell:    126126
     Hessian allocation dimension:  24972948

     Grimme-D3 Hessian read

     Computing dynamical matrix for q:     0.288675   -0.500000   -0.202430

     Writing Hessian on file dynamical.false.dat

     Dynamical matrix computed

[...]

     Representation #  66 mode #  66

     Self-consistent Calculation

[...]

      thresh= 3.128E-09 alpha_mix =  0.700 |ddv_scf|^2 =  2.767E-17

     End of self-consistent calculation

     Convergence has been achieved

     Number of q in the star =    3
     List of q in the star:
          1   0.288675135  -0.500000000  -0.202430016
          2   0.577350269   0.000000000   0.202430016
          3  -0.288675135  -0.500000000   0.202430016

     Diagonalizing the dynamical matrix

     q = (    0.288675135  -0.500000000  -0.202430016 )

     freq (    1) =       1.797253 [THz] =      59.949908 [cm-1]
     freq (    2) =       1.863098 [THz] =      62.146265 [cm-1]
     freq (    3) =       1.883928 [THz] =      62.841089 [cm-1]
     freq (    4) =       2.063450 [THz] =      68.829288 [cm-1]
     freq (    5) =       2.293959 [THz] =      76.518247 [cm-1]
     freq (    6) =       2.429601 [THz] =      81.042756 [cm-1]
     freq (    7) =       2.717846 [THz] =      90.657583 [cm-1]
     freq (    8) =       2.887510 [THz] =      96.316982 [cm-1]
     freq (    9) =       3.602126 [THz] =     120.153991 [cm-1]
     freq (   10) =       3.676368 [THz] =     122.630425 [cm-1]
     freq (   11) =       3.778902 [THz] =     126.050601 [cm-1]
     freq (   12) =       3.974566 [THz] =     132.577239 [cm-1]
     freq (   13) =       4.615405 [THz] =     153.953349 [cm-1]
     freq (   14) =       4.822717 [THz] =     160.868512 [cm-1]
     freq (   15) =       5.082392 [THz] =     169.530343 [cm-1]
     freq (   16) =       5.235713 [THz] =     174.644592 [cm-1]
     freq (   17) =       5.460775 [THz] =     182.151852 [cm-1]
     freq (   18) =       5.532408 [THz] =     184.541281 [cm-1]
     freq (   19) =       6.098509 [THz] =     203.424357 [cm-1]
     freq (   20) =       6.193981 [THz] =     206.608963 [cm-1]
     freq (   21) =       6.459625 [THz] =     215.469906 [cm-1]
     freq (   22) =       6.654014 [THz] =     221.954003 [cm-1]
     freq (   23) =       6.760946 [THz] =     225.520884 [cm-1]
     freq (   24) =       6.992868 [THz] =     233.256970 [cm-1]
     freq (   25) =       7.080665 [THz] =     236.185576 [cm-1]
     freq (   26) =       7.117058 [THz] =     237.399497 [cm-1]
     freq (   27) =       7.598077 [THz] =     253.444583 [cm-1]
     freq (   28) =       7.599699 [THz] =     253.498663 [cm-1]
     freq (   29) =       8.899213 [THz] =     296.845788 [cm-1]
     freq (   30) =       9.010324 [THz] =     300.552046 [cm-1]
     freq (   31) =       9.026023 [THz] =     301.075705 [cm-1]
     freq (   32) =       9.045020 [THz] =     301.709382 [cm-1]
     freq (   33) =       9.421835 [THz] =     314.278573 [cm-1]
     freq (   34) =       9.493454 [THz] =     316.667532 [cm-1]
     freq (   35) =       9.517519 [THz] =     317.470266 [cm-1]
     freq (   36) =       9.666725 [THz] =     322.447227 [cm-1]
     freq (   37) =       9.873683 [THz] =     329.350607 [cm-1]
     freq (   38) =      10.096929 [THz] =     336.797307 [cm-1]
     freq (   39) =      10.161118 [THz] =     338.938410 [cm-1]
     freq (   40) =      10.232223 [THz] =     341.310206 [cm-1]
     freq (   41) =      10.322571 [THz] =     344.323913 [cm-1]
     freq (   42) =      10.470127 [THz] =     349.245860 [cm-1]
     freq (   43) =      10.478997 [THz] =     349.541723 [cm-1]
     freq (   44) =      10.485801 [THz] =     349.768664 [cm-1]
     freq (   45) =      10.719708 [THz] =     357.570974 [cm-1]
     freq (   46) =      10.728193 [THz] =     357.853989 [cm-1]
     freq (   47) =      11.116420 [THz] =     370.803847 [cm-1]
     freq (   48) =      11.204245 [THz] =     373.733385 [cm-1]
     freq (   49) =      11.660815 [THz] =     388.962907 [cm-1]
     freq (   50) =      11.782015 [THz] =     393.005707 [cm-1]
     freq (   51) =      12.184797 [THz] =     406.441084 [cm-1]
     freq (   52) =      12.304119 [THz] =     410.421234 [cm-1]
     freq (   53) =      12.541234 [THz] =     418.330550 [cm-1]
     freq (   54) =      12.770028 [THz] =     425.962289 [cm-1]
     freq (   55) =      13.032287 [THz] =     434.710307 [cm-1]
     freq (   56) =      13.349217 [THz] =     445.281934 [cm-1]
     freq (   57) =      13.697055 [THz] =     456.884562 [cm-1]
     freq (   58) =      14.300107 [THz] =     477.000221 [cm-1]
     freq (   59) =      15.541243 [THz] =     518.400066 [cm-1]
     freq (   60) =      15.544639 [THz] =     518.513330 [cm-1]
     freq (   61) =      15.557799 [THz] =     518.952319 [cm-1]
     freq (   62) =      15.964831 [THz] =     532.529440 [cm-1]
     freq (   63) =      16.308643 [THz] =     543.997765 [cm-1]
     freq (   64) =      16.466521 [THz] =     549.264010 [cm-1]
     freq (   65) =      17.011021 [THz] =     567.426596 [cm-1]
     freq (   66) =      17.069196 [THz] =     569.367101 [cm-1]

     Mode symmetry, C_2h (2/m)  point group:

     freq (   1-   1) =         59.9  [cm-1]   --> B_g
     freq (   2-   2) =         62.1  [cm-1]   --> B_u
     freq (   3-   3) =         62.8  [cm-1]   --> A_u
     freq (   4-   4) =         68.8  [cm-1]   --> A_g
     freq (   5-   5) =         76.5  [cm-1]   --> B_u
     freq (   6-   6) =         81.0  [cm-1]   --> A_g
     freq (   7-   7) =         90.7  [cm-1]   --> A_u
     freq (   8-   8) =         96.3  [cm-1]   --> B_g
     freq (   9-   9) =        120.2  [cm-1]   --> A_g
     freq (  10-  10) =        122.6  [cm-1]   --> B_u
     freq (  11-  11) =        126.1  [cm-1]   --> A_u
     freq (  12-  12) =        132.6  [cm-1]   --> B_g
     freq (  13-  13) =        154.0  [cm-1]   --> B_u
     freq (  14-  14) =        160.9  [cm-1]   --> A_g
     freq (  15-  15) =        169.5  [cm-1]   --> B_u
     freq (  16-  16) =        174.6  [cm-1]   --> B_g
     freq (  17-  17) =        182.2  [cm-1]   --> B_g
     freq (  18-  18) =        184.5  [cm-1]   --> A_u
     freq (  19-  19) =        203.4  [cm-1]   --> A_g
     freq (  20-  20) =        206.6  [cm-1]   --> A_u
     freq (  21-  21) =        215.5  [cm-1]   --> A_g
     freq (  22-  22) =        222.0  [cm-1]   --> B_u
     freq (  23-  23) =        225.5  [cm-1]   --> A_g
     freq (  24-  24) =        233.3  [cm-1]   --> B_u
     freq (  25-  25) =        236.2  [cm-1]   --> B_g
     freq (  26-  26) =        237.4  [cm-1]   --> A_u
     freq (  27-  27) =        253.4  [cm-1]   --> A_g
     freq (  28-  28) =        253.5  [cm-1]   --> B_u
     freq (  29-  29) =        296.8  [cm-1]   --> B_u
     freq (  30-  30) =        300.6  [cm-1]   --> A_g
     freq (  31-  31) =        301.1  [cm-1]   --> A_u
     freq (  32-  32) =        301.7  [cm-1]   --> B_g
     freq (  33-  33) =        314.3  [cm-1]   --> A_g
     freq (  34-  34) =        316.7  [cm-1]   --> A_u
     freq (  35-  35) =        317.5  [cm-1]   --> B_u
     freq (  36-  36) =        322.4  [cm-1]   --> B_g
     freq (  37-  37) =        329.4  [cm-1]   --> B_g
     freq (  38-  38) =        336.8  [cm-1]   --> B_u
     freq (  39-  39) =        338.9  [cm-1]   --> A_g
     freq (  40-  40) =        341.3  [cm-1]   --> A_u
     freq (  41-  41) =        344.3  [cm-1]   --> B_u
     freq (  42-  42) =        349.2  [cm-1]   --> A_g
     freq (  43-  43) =        349.5  [cm-1]   --> B_g
     freq (  44-  44) =        349.8  [cm-1]   --> A_u
     freq (  45-  45) =        357.6  [cm-1]   --> A_u
     freq (  46-  46) =        357.9  [cm-1]   --> B_g
     freq (  47-  47) =        370.8  [cm-1]   --> B_g
     freq (  48-  48) =        373.7  [cm-1]   --> A_u
     freq (  49-  49) =        389.0  [cm-1]   --> B_u
     freq (  50-  50) =        393.0  [cm-1]   --> A_g
     freq (  51-  51) =        406.4  [cm-1]   --> B_u
     freq (  52-  52) =        410.4  [cm-1]   --> A_g
     freq (  53-  53) =        418.3  [cm-1]   --> B_g
     freq (  54-  54) =        426.0  [cm-1]   --> A_u
     freq (  55-  55) =        434.7  [cm-1]   --> B_u
     freq (  56-  56) =        445.3  [cm-1]   --> A_g
     freq (  57-  57) =        456.9  [cm-1]   --> B_u
     freq (  58-  58) =        477.0  [cm-1]   --> A_g
     freq (  59-  59) =        518.4  [cm-1]   --> A_g
     freq (  60-  60) =        518.5  [cm-1]   --> B_u
     freq (  61-  61) =        519.0  [cm-1]   --> B_g
     freq (  62-  62) =        532.5  [cm-1]   --> A_u
     freq (  63-  63) =        544.0  [cm-1]   --> A_g
     freq (  64-  64) =        549.3  [cm-1]   --> B_u
     freq (  65-  65) =        567.4  [cm-1]   --> B_u
     freq (  66-  66) =        569.4  [cm-1]   --> A_g

     General routines

     Parallel routines

     INITIALIZATION:

     DYNAMICAL MATRIX:

                                        0.00s GPU  (   14112 calls)
                                        0.00s GPU  (   15906 calls)
                                        0.00s GPU  (    3012 calls)

                                        0.00s GPU  (    1386 calls)

      General routines

      Additional routines
                                        0.00s GPU  (  460307 calls)

   This run was terminated on:   4: 4:32   1Jun2025

   JOB DONE.