     Program PHONON v.7.3.1 starts on 11May2025 at 12:13:22

     Waiting for input...
     Reading input from standard input

     Reading xml data from directory:

     ./out/Nb3I8.save/

     K-points division:     npool     =      12
     R & G space division:  proc/nbgrp/npool/nimage =      32
     Subspace diagonalization in iterative solution of the eigenvalue problem:
     one sub-group per band group will be used

     IMPORTANT: XC functional enforced from input :
     Exchange-correlation= PBE
                           (   1   4   3   4   0   0   0)
     Any further DFT definition will be discarded
     Please, verify this is what you really want

     Using Slab Decomposition

     Reading collected, re-writing distributed wavefunctions in ./out/

     Saving dvscf to file. Distribute only q points, not irreducible representations.
        2 /   4 q-points for this run, from  3 to  4:
       N       xq(1)         xq(2)         xq(3)
       1   0.000000000   0.000000000   0.000000000
       2   0.000000000   0.000000000  -0.277547388
       3   0.288675135  -0.500000000   0.092515796
       4   0.288675135  -0.500000000  -0.185031592

     Calculation of q =    0.2886751  -0.5000000   0.0925158

     Bands found: reading from ./out/_ph0/Nb3I8.q_3/

     Reading xml data from directory:

     ./out/_ph0/Nb3I8.q_3/Nb3I8.save/
     Message from routine qexsd_readschema :
     input info not found or not readable in xml file

     IMPORTANT: XC functional enforced from input :
     Exchange-correlation= PBE
                           (   1   4   3   4   0   0   0)
     Any further DFT definition will be discarded
     Please, verify this is what you really want

[...]

     read_file_new: Wavefunctions not in collected format?!?
     read_file: Wavefunctions in collected format not available

     Restart in Phonon calculation

     Nb3I8

     bravais-lattice index     =            0
     lattice parameter (alat)  =      14.4200  a.u.
     unit-cell volume          =    4677.9756 (a.u.)^3
     number of atoms/cell      =           22
     number of atomic types    =            2
     kinetic-energy cut-off    =     100.0000  Ry
     charge density cut-off    =     400.0000  Ry
     convergence threshold     =      1.0E-16
     beta                      =       0.7000
     number of iterations used =            4
     Exchange-correlation= PBE
                           (   1   4   3   4   0   0   0)

     celldm(1)=   14.41999  celldm(2)=    0.00000  celldm(3)=    0.00000
     celldm(4)=    0.00000  celldm(5)=    0.00000  celldm(6)=    0.00000

     crystal axes: (cart. coord. in units of alat)
               a(1) = (  0.8660  0.5000  0.0000 )
               a(2) = ( -0.8660  0.5000  0.0000 )
               a(3) = ( -0.5774  0.0000  1.8015 )

     reciprocal axes: (cart. coord. in units 2 pi/alat)
               b(1) = (  0.5774  1.0000  0.1850 )
               b(2) = ( -0.5774  1.0000 -0.1850 )
               b(3) = (  0.0000 -0.0000  0.5551 )

     Atoms inside the unit cell:

     Cartesian axes

     site n.  atom      mass           positions (alat units)
        1  Nb     92.9064   tau(    1) = (   -1.21677    0.50000    1.34532  )
        2  Nb     92.9064   tau(    2) = (   -0.69065    0.19625    1.34532  )
        3  Nb     92.9064   tau(    3) = (   -0.69065    0.80375    1.34532  )
        4  Nb     92.9064   tau(    4) = (    0.63942    0.50000    0.45617  )
        5  Nb     92.9064   tau(    5) = (    0.11330    0.80375    0.45617  )
        6  Nb     92.9064   tau(    6) = (    0.11330    0.19625    0.45617  )
        7  I     126.9045   tau(    7) = (    0.28868    0.50000    1.06514  )
        8  I     126.9045   tau(    8) = (   -0.57012    0.50000    1.14509  )
        9  I     126.9045   tau(    9) = (   -0.14795    0.25626    1.14509  )
       10  I     126.9045   tau(   10) = (   -0.14795    0.74374    1.14509  )
       11  I     126.9045   tau(   11) = (   -0.86603    0.50000    1.53629  )
       12  I     126.9045   tau(   12) = (   -0.00089    0.50000    1.59225  )
       13  I     126.9045   tau(   13) = (   -0.43257    0.74923    1.59225  )
       14  I     126.9045   tau(   14) = (   -0.43257    0.25077    1.59225  )
       15  I     126.9045   tau(   15) = (   -0.57646    0.50000    0.20924  )
       16  I     126.9045   tau(   16) = (   -0.14478    0.25077    0.20924  )
       17  I     126.9045   tau(   17) = (   -0.14478    0.74923    0.20924  )
       18  I     126.9045   tau(   18) = (    0.28868    0.50000    0.26521  )
       19  I     126.9045   tau(   19) = (   -0.00723    0.50000    0.65640  )
       20  I     126.9045   tau(   20) = (   -0.42940    0.74374    0.65640  )
       21  I     126.9045   tau(   21) = (   -0.42940    0.25626    0.65640  )
       22  I     126.9045   tau(   22) = (   -0.86603    0.50000    0.73635  )

     Computing dynamical matrix for
                    q = (   0.2886751  -0.5000000   0.0925158 )

      5 Sym.Ops. (with q -> -q+G )

     G cutoff = 2106.8320  (  19747 G-vectors)     FFT grid: (180,180,180)

     number of k points=   136  Gaussian smearing, width (Ry)=  0.0037

     PseudoPot. # 1 for Nb read from file:
     /scratch-shared/mroesner/Nb3X8_cDFPT/pp/Nb_ONCV_PBE-1.2.upf
     MD5 check sum: 2c750ac0b6910ff4cf0ab5f6c4124a64
     Pseudo is Norm-conserving, Zval = 13.0
     Generated using ONCVPSP code by D. R. Hamann
     Using radial grid of  602 points,  6 beta functions with:
                l(1) =   0
                l(2) =   0
                l(3) =   1
                l(4) =   1
                l(5) =   2
                l(6) =   2

     PseudoPot. # 2 for I  read from file:
     /scratch-shared/mroesner/Nb3X8_cDFPT/pp/I_ONCV_PBE-1.2.upf
     MD5 check sum: 8277ef51204d8074ead4596f3b37a2aa
     Pseudo is Norm-conserving, Zval = 17.0
     Generated using ONCVPSP code by D. R. Hamann
     Using radial grid of  602 points,  6 beta functions with:
                l(1) =   0
                l(2) =   0
                l(3) =   1
                l(4) =   1
                l(5) =   2
                l(6) =   2

     Mode symmetry, C_2h (2/m)  point group:

     Atomic displacements:
     There are   66 irreducible representations

     Representation     1      1 modes -  Done

[...]

     Representation    35      1 modes -  Done

     Representation    36      1 modes -  To be done

[...]

     Message from routine init_vloc:
     Interpolation table for Vloc re-allocated

     Representation #  36 mode #  36

     Self-consistent Calculation

      thresh= 1.000E-02 alpha_mix =  0.700 |ddv_scf|^2 =  6.212E-08

[...]

     End of self-consistent calculation

     Convergence has been achieved

[...]

     Number of q in the star =    3
     List of q in the star:
          1   0.288675135  -0.500000000   0.092515796
          2   0.577350269  -0.000000000  -0.092515796
          3  -0.288675135  -0.500000000  -0.092515796

     Diagonalizing the dynamical matrix

     q = (    0.288675135  -0.500000000   0.092515796 )

     freq (    1) =       1.073055 [THz] =      35.793264 [cm-1]
     freq (    2) =       1.329027 [THz] =      44.331574 [cm-1]
     freq (    3) =       1.476682 [THz] =      49.256793 [cm-1]
     freq (    4) =       1.482019 [THz] =      49.434824 [cm-1]
     freq (    5) =       1.521004 [THz] =      50.735247 [cm-1]
     freq (    6) =       1.592193 [THz] =      53.109829 [cm-1]
     freq (    7) =       1.662103 [THz] =      55.441779 [cm-1]
     freq (    8) =       1.759038 [THz] =      58.675188 [cm-1]
     freq (    9) =       1.787129 [THz] =      59.612194 [cm-1]
     freq (   10) =       1.894751 [THz] =      63.202100 [cm-1]
     freq (   11) =       2.209672 [THz] =      73.706716 [cm-1]
     freq (   12) =       2.244118 [THz] =      74.855726 [cm-1]
     freq (   13) =       2.246442 [THz] =      74.933231 [cm-1]
     freq (   14) =       2.304520 [THz] =      76.870517 [cm-1]
     freq (   15) =       2.316469 [THz] =      77.269075 [cm-1]
     freq (   16) =       2.322596 [THz] =      77.473476 [cm-1]
     freq (   17) =       2.445967 [THz] =      81.588690 [cm-1]
     freq (   18) =       2.535924 [THz] =      84.589325 [cm-1]
     freq (   19) =       2.543654 [THz] =      84.847151 [cm-1]
     freq (   20) =       2.608347 [THz] =      87.005076 [cm-1]
     freq (   21) =       2.633052 [THz] =      87.829169 [cm-1]
     freq (   22) =       2.728325 [THz] =      91.007130 [cm-1]
     freq (   23) =       2.739153 [THz] =      91.368304 [cm-1]
     freq (   24) =       2.794410 [THz] =      93.211488 [cm-1]
     freq (   25) =       2.804196 [THz] =      93.537918 [cm-1]
     freq (   26) =       2.860953 [THz] =      95.431128 [cm-1]
     freq (   27) =       2.959900 [THz] =      98.731642 [cm-1]
     freq (   28) =       2.963455 [THz] =      98.850233 [cm-1]
     freq (   29) =       3.062258 [THz] =     102.145926 [cm-1]
     freq (   30) =       3.104004 [THz] =     103.538416 [cm-1]
     freq (   31) =       3.236263 [THz] =     107.950123 [cm-1]
     freq (   32) =       3.252604 [THz] =     108.495186 [cm-1]
     freq (   33) =       3.263015 [THz] =     108.842459 [cm-1]
     freq (   34) =       3.270577 [THz] =     109.094704 [cm-1]
     freq (   35) =       3.316425 [THz] =     110.624030 [cm-1]
     freq (   36) =       3.330999 [THz] =     111.110151 [cm-1]
     freq (   37) =       3.407987 [THz] =     113.678198 [cm-1]
     freq (   38) =       3.447741 [THz] =     115.004256 [cm-1]
     freq (   39) =       3.461403 [THz] =     115.459967 [cm-1]
     freq (   40) =       3.501002 [THz] =     116.780864 [cm-1]
     freq (   41) =       3.554684 [THz] =     118.571511 [cm-1]
     freq (   42) =       3.555084 [THz] =     118.584837 [cm-1]
     freq (   43) =       3.815386 [THz] =     127.267587 [cm-1]
     freq (   44) =       3.874615 [THz] =     129.243247 [cm-1]
     freq (   45) =       3.888669 [THz] =     129.712025 [cm-1]
     freq (   46) =       3.899322 [THz] =     130.067387 [cm-1]
     freq (   47) =       3.986173 [THz] =     132.964404 [cm-1]
     freq (   48) =       4.301226 [THz] =     143.473439 [cm-1]
     freq (   49) =       5.133732 [THz] =     171.242878 [cm-1]
     freq (   50) =       5.150903 [THz] =     171.815622 [cm-1]
     freq (   51) =       5.424751 [THz] =     180.950199 [cm-1]
     freq (   52) =       5.426073 [THz] =     180.994307 [cm-1]
     freq (   53) =       6.016790 [THz] =     200.698503 [cm-1]
     freq (   54) =       6.024661 [THz] =     200.961062 [cm-1]
     freq (   55) =       6.144651 [THz] =     204.963500 [cm-1]
     freq (   56) =       6.200043 [THz] =     206.811182 [cm-1]
     freq (   57) =       6.261106 [THz] =     208.848028 [cm-1]
     freq (   58) =       6.405231 [THz] =     213.655509 [cm-1]
     freq (   59) =       6.482421 [THz] =     216.230293 [cm-1]
     freq (   60) =       6.529006 [THz] =     217.784193 [cm-1]
     freq (   61) =       7.238978 [THz] =     241.466321 [cm-1]
     freq (   62) =       7.244512 [THz] =     241.650893 [cm-1]
     freq (   63) =       7.272230 [THz] =     242.575471 [cm-1]
     freq (   64) =       7.367702 [THz] =     245.760101 [cm-1]
[...]
     freq (  66-  66) =        251.5  [cm-1]   --> A_g

     Calculation of q =    0.2886751  -0.5000000  -0.1850316

     Using Slab Decomposition

     Title:
     Nb3I8

     bravais-lattice index     =            0
     lattice parameter (alat)  =      14.4200  a.u.
     unit-cell volume          =    4677.9756 (a.u.)^3
     number of atoms/cell      =           22
     number of atomic types    =            2
     number of electrons       =       350.00
     number of Kohn-Sham states=          210
     kinetic-energy cutoff     =     100.0000  Ry
     charge density cutoff     =     400.0000  Ry
     Exchange-correlation= PBE
                           (   1   4   3   4   0   0   0)

[...]

     atomic species   valence    mass     pseudopotential
     Nb               13.00    92.90637     Nb( 1.00)
     I                17.00   126.90447     I ( 1.00)

     12 Sym. Ops., with inversion, found

[...]

     site n.     atom                  positions (alat units)
         1        Nb     tau(   1) = (  -1.2167714   0.5000000   1.3453228  )
         2        Nb     tau(   2) = (  -0.6906524   0.1962451   1.3453228  )
         3        Nb     tau(   3) = (  -0.6906524   0.8037549   1.3453228  )
         4        Nb     tau(   4) = (   0.6394211   0.5000000   0.4561713  )
         5        Nb     tau(   5) = (   0.1133021   0.8037549   0.4561713  )
         6        Nb     tau(   6) = (   0.1133021   0.1962451   0.4561713  )
         7        I      tau(   7) = (   0.2886751   0.5000000   1.0651449  )
         8        I      tau(   8) = (  -0.5701187   0.5000000   1.1450936  )
         9        I      tau(   9) = (  -0.1479534   0.2562627   1.1450936  )
        10        I      tau(  10) = (  -0.1479534   0.7437373   1.1450936  )
        11        I      tau(  11) = (  -0.8660254   0.5000000   1.5362875  )
        12        I      tau(  12) = (  -0.0008883   0.5000000   1.5922517  )
        13        I      tau(  13) = (  -0.4325686   0.7492307   1.5922517  )
        14        I      tau(  14) = (  -0.4325686   0.2507693   1.5922517  )
        15        I      tau(  15) = (  -0.5764620   0.5000000   0.2092424  )
        16        I      tau(  16) = (  -0.1447817   0.2507693   0.2092424  )
        17        I      tau(  17) = (  -0.1447817   0.7492307   0.2092424  )
        18        I      tau(  18) = (   0.2886751   0.5000000   0.2652066  )
        19        I      tau(  19) = (  -0.0072316   0.5000000   0.6564006  )
        20        I      tau(  20) = (  -0.4293969   0.7437373   0.6564006  )
        21        I      tau(  21) = (  -0.4293969   0.2562627   0.6564006  )
        22        I      tau(  22) = (  -0.8660254   0.5000000   0.7363493  )

[...]

     Number of k-points >= 100: set verbosity='high' to print them.

     The potential is recalculated from file :
     ./out/_ph0/Nb3I8.q_4/Nb3I8.save/charge-density

     Starting wfcs are    0 atomic +  210 random wfcs

     Band Structure Calculation
     Davidson diagonalization with overlap

     ethr =  2.86E-12,  avg # of iterations = 66.1

     End of band structure calculation

     Number of k-points >= 100: set verbosity='high' to print the bands.

     the Fermi energy is    10.8459 ev

     Writing config to output data dir ./out/_ph0/Nb3I8.q_4/Nb3I8.save/ :
     XML data file

     Nb3I8

     bravais-lattice index     =            0
     lattice parameter (alat)  =      14.4200  a.u.
     unit-cell volume          =    4677.9756 (a.u.)^3
     number of atoms/cell      =           22
     number of atomic types    =            2
     kinetic-energy cut-off    =     100.0000  Ry
     charge density cut-off    =     400.0000  Ry
     convergence threshold     =      1.0E-16
     beta                      =       0.7000
     number of iterations used =            4
     Exchange-correlation= PBE
                           (   1   4   3   4   0   0   0)

     celldm(1)=   14.41999  celldm(2)=    0.00000  celldm(3)=    0.00000
     celldm(4)=    0.00000  celldm(5)=    0.00000  celldm(6)=    0.00000

     crystal axes: (cart. coord. in units of alat)
               a(1) = (  0.8660  0.5000  0.0000 )
               a(2) = ( -0.8660  0.5000  0.0000 )
               a(3) = ( -0.5774  0.0000  1.8015 )

     reciprocal axes: (cart. coord. in units 2 pi/alat)
               b(1) = (  0.5774  1.0000  0.1850 )
               b(2) = ( -0.5774  1.0000 -0.1850 )
               b(3) = (  0.0000 -0.0000  0.5551 )

     Atoms inside the unit cell:

     Cartesian axes

     site n.  atom      mass           positions (alat units)
        1  Nb     92.9064   tau(    1) = (   -1.21677    0.50000    1.34532  )
        2  Nb     92.9064   tau(    2) = (   -0.69065    0.19625    1.34532  )
        3  Nb     92.9064   tau(    3) = (   -0.69065    0.80375    1.34532  )
        4  Nb     92.9064   tau(    4) = (    0.63942    0.50000    0.45617  )
        5  Nb     92.9064   tau(    5) = (    0.11330    0.80375    0.45617  )
        6  Nb     92.9064   tau(    6) = (    0.11330    0.19625    0.45617  )
        7  I     126.9045   tau(    7) = (    0.28868    0.50000    1.06514  )
        8  I     126.9045   tau(    8) = (   -0.57012    0.50000    1.14509  )
        9  I     126.9045   tau(    9) = (   -0.14795    0.25626    1.14509  )
       10  I     126.9045   tau(   10) = (   -0.14795    0.74374    1.14509  )
       11  I     126.9045   tau(   11) = (   -0.86603    0.50000    1.53629  )
       12  I     126.9045   tau(   12) = (   -0.00089    0.50000    1.59225  )
       13  I     126.9045   tau(   13) = (   -0.43257    0.74923    1.59225  )
       14  I     126.9045   tau(   14) = (   -0.43257    0.25077    1.59225  )
       15  I     126.9045   tau(   15) = (   -0.57646    0.50000    0.20924  )
       16  I     126.9045   tau(   16) = (   -0.14478    0.25077    0.20924  )
       17  I     126.9045   tau(   17) = (   -0.14478    0.74923    0.20924  )
       18  I     126.9045   tau(   18) = (    0.28868    0.50000    0.26521  )
       19  I     126.9045   tau(   19) = (   -0.00723    0.50000    0.65640  )
       20  I     126.9045   tau(   20) = (   -0.42940    0.74374    0.65640  )
       21  I     126.9045   tau(   21) = (   -0.42940    0.25626    0.65640  )
       22  I     126.9045   tau(   22) = (   -0.86603    0.50000    0.73635  )

     Computing dynamical matrix for
                    q = (   0.2886751  -0.5000000  -0.1850316 )

      5 Sym.Ops. (with q -> -q+G )

     G cutoff = 2106.8320  (  19747 G-vectors)     FFT grid: (180,180,180)

     number of k points=   136  Gaussian smearing, width (Ry)=  0.0037

     PseudoPot. # 1 for Nb read from file:
     /scratch-shared/mroesner/Nb3X8_cDFPT/pp/Nb_ONCV_PBE-1.2.upf
     MD5 check sum: 2c750ac0b6910ff4cf0ab5f6c4124a64
     Pseudo is Norm-conserving, Zval = 13.0
     Generated using ONCVPSP code by D. R. Hamann
     Using radial grid of  602 points,  6 beta functions with:
                l(1) =   0
                l(2) =   0
                l(3) =   1
                l(4) =   1
                l(5) =   2
                l(6) =   2

     PseudoPot. # 2 for I  read from file:
     /scratch-shared/mroesner/Nb3X8_cDFPT/pp/I_ONCV_PBE-1.2.upf
     MD5 check sum: 8277ef51204d8074ead4596f3b37a2aa
     Pseudo is Norm-conserving, Zval = 17.0
     Generated using ONCVPSP code by D. R. Hamann
     Using radial grid of  602 points,  6 beta functions with:
                l(1) =   0
                l(2) =   0
                l(3) =   1
                l(4) =   1
                l(5) =   2
                l(6) =   2

[...]

     Atomic displacements:
     There are   66 irreducible representations

[...]

     Representation    66      1 modes -  To be done

     Alpha used in Ewald sum =   2.8000

[...]

     Representation #  66 mode #  66

     Self-consistent Calculation

[...]

      thresh= 1.554E-09 alpha_mix =  0.700 |ddv_scf|^2 =  3.413E-17

     End of self-consistent calculation

     Convergence has been achieved

     Number of q in the star =    3
     List of q in the star:
          1   0.288675135  -0.500000000  -0.185031592
          2   0.577350269  -0.000000000   0.185031592
          3  -0.288675135  -0.500000000   0.185031592

     Diagonalizing the dynamical matrix

     q = (    0.288675135  -0.500000000  -0.185031592 )

     freq (    1) =       1.223387 [THz] =      40.807794 [cm-1]
     freq (    2) =       1.307479 [THz] =      43.612804 [cm-1]
     freq (    3) =       1.404465 [THz] =      46.847913 [cm-1]
     freq (    4) =       1.426648 [THz] =      47.587838 [cm-1]
     freq (    5) =       1.491438 [THz] =      49.749011 [cm-1]
     freq (    6) =       1.570723 [THz] =      52.393682 [cm-1]
     freq (    7) =       1.661463 [THz] =      55.420437 [cm-1]
     freq (    8) =       1.712546 [THz] =      57.124401 [cm-1]
     freq (    9) =       1.819689 [THz] =      60.698278 [cm-1]
     freq (   10) =       1.837236 [THz] =      61.283583 [cm-1]
     freq (   11) =       2.149592 [THz] =      71.702673 [cm-1]
     freq (   12) =       2.209265 [THz] =      73.693161 [cm-1]
     freq (   13) =       2.225839 [THz] =      74.245992 [cm-1]
     freq (   14) =       2.278810 [THz] =      76.012912 [cm-1]
     freq (   15) =       2.281483 [THz] =      76.102080 [cm-1]
     freq (   16) =       2.408371 [THz] =      80.334601 [cm-1]
     freq (   17) =       2.505023 [THz] =      83.558577 [cm-1]
     freq (   18) =       2.513866 [THz] =      83.853539 [cm-1]
     freq (   19) =       2.533393 [THz] =      84.504896 [cm-1]
     freq (   20) =       2.572988 [THz] =      85.825654 [cm-1]
     freq (   21) =       2.624174 [THz] =      87.533023 [cm-1]
     freq (   22) =       2.648198 [THz] =      88.334378 [cm-1]
     freq (   23) =       2.681342 [THz] =      89.439934 [cm-1]
     freq (   24) =       2.763037 [THz] =      92.164978 [cm-1]
     freq (   25) =       2.800813 [THz] =      93.425070 [cm-1]
     freq (   26) =       2.843090 [THz] =      94.835276 [cm-1]
     freq (   27) =       2.951828 [THz] =      98.462388 [cm-1]
     freq (   28) =       2.961459 [THz] =      98.783647 [cm-1]
     freq (   29) =       3.044623 [THz] =     101.557684 [cm-1]
     freq (   30) =       3.101392 [THz] =     103.451288 [cm-1]
     freq (   31) =       3.220952 [THz] =     107.439385 [cm-1]
     freq (   32) =       3.226302 [THz] =     107.617837 [cm-1]
     freq (   33) =       3.230990 [THz] =     107.774221 [cm-1]
     freq (   34) =       3.291789 [THz] =     109.802258 [cm-1]
     freq (   35) =       3.293598 [THz] =     109.862609 [cm-1]
     freq (   36) =       3.321256 [THz] =     110.785184 [cm-1]
     freq (   37) =       3.368429 [THz] =     112.358705 [cm-1]
     freq (   38) =       3.433103 [THz] =     114.515979 [cm-1]
     freq (   39) =       3.464956 [THz] =     115.578495 [cm-1]
     freq (   40) =       3.478736 [THz] =     116.038153 [cm-1]
     freq (   41) =       3.524659 [THz] =     117.569959 [cm-1]
     freq (   42) =       3.574847 [THz] =     119.244044 [cm-1]
     freq (   43) =       3.788884 [THz] =     126.383574 [cm-1]
     freq (   44) =       3.846197 [THz] =     128.295337 [cm-1]
     freq (   45) =       3.859151 [THz] =     128.727416 [cm-1]
     freq (   46) =       3.862561 [THz] =     128.841157 [cm-1]
     freq (   47) =       3.971371 [THz] =     132.470665 [cm-1]
     freq (   48) =       4.258084 [THz] =     142.034398 [cm-1]
     freq (   49) =       5.138704 [THz] =     171.408717 [cm-1]
     freq (   50) =       5.158045 [THz] =     172.053870 [cm-1]
     freq (   51) =       5.427899 [THz] =     181.055220 [cm-1]
     freq (   52) =       5.429406 [THz] =     181.105486 [cm-1]
     freq (   53) =       6.017013 [THz] =     200.705956 [cm-1]
     freq (   54) =       6.038855 [THz] =     201.434533 [cm-1]
     freq (   55) =       6.151958 [THz] =     205.207247 [cm-1]
     freq (   56) =       6.214371 [THz] =     207.289113 [cm-1]
     freq (   57) =       6.245275 [THz] =     208.319964 [cm-1]
     freq (   58) =       6.407739 [THz] =     213.739172 [cm-1]
     freq (   59) =       6.495802 [THz] =     216.676626 [cm-1]
     freq (   60) =       6.515613 [THz] =     217.337456 [cm-1]
     freq (   61) =       7.238301 [THz] =     241.443722 [cm-1]
     freq (   62) =       7.254215 [THz] =     241.974571 [cm-1]
     freq (   63) =       7.301057 [THz] =     243.537041 [cm-1]
     freq (   64) =       7.393599 [THz] =     246.623907 [cm-1]
     freq (   65) =       7.526718 [THz] =     251.064289 [cm-1]
     freq (   66) =       7.534918 [THz] =     251.337824 [cm-1]

     Mode symmetry, C_2h (2/m)  point group:

     freq (   1-   1) =         40.8  [cm-1]   --> B_u
     freq (   2-   2) =         43.6  [cm-1]   --> A_g
     freq (   3-   3) =         46.8  [cm-1]   --> B_g
     freq (   4-   4) =         47.6  [cm-1]   --> A_u
     freq (   5-   5) =         49.7  [cm-1]   --> B_u
     freq (   6-   6) =         52.4  [cm-1]   --> A_g
     freq (   7-   7) =         55.4  [cm-1]   --> A_u
     freq (   8-   8) =         57.1  [cm-1]   --> B_g
     freq (   9-   9) =         60.7  [cm-1]   --> A_u
     freq (  10-  10) =         61.3  [cm-1]   --> B_g
     freq (  11-  11) =         71.7  [cm-1]   --> B_u
     freq (  12-  12) =         73.7  [cm-1]   --> B_g
     freq (  13-  13) =         74.2  [cm-1]   --> A_g
     freq (  14-  14) =         76.0  [cm-1]   --> B_u
     freq (  15-  15) =         76.1  [cm-1]   --> A_g
     freq (  16-  16) =         80.3  [cm-1]   --> A_u
     freq (  17-  17) =         83.6  [cm-1]   --> B_u
     freq (  18-  18) =         83.9  [cm-1]   --> A_g
     freq (  19-  19) =         84.5  [cm-1]   --> B_g
     freq (  20-  20) =         85.8  [cm-1]   --> B_u
     freq (  21-  21) =         87.5  [cm-1]   --> A_u
     freq (  22-  22) =         88.3  [cm-1]   --> A_g
     freq (  23-  23) =         89.4  [cm-1]   --> B_u
     freq (  24-  24) =         92.2  [cm-1]   --> A_g
     freq (  25-  25) =         93.4  [cm-1]   --> B_g
     freq (  26-  26) =         94.8  [cm-1]   --> A_u
     freq (  27-  27) =         98.5  [cm-1]   --> A_g
     freq (  28-  28) =         98.8  [cm-1]   --> B_u
     freq (  29-  29) =        101.6  [cm-1]   --> B_g
     freq (  30-  30) =        103.5  [cm-1]   --> A_u
     freq (  31-  31) =        107.4  [cm-1]   --> B_g
     freq (  32-  32) =        107.6  [cm-1]   --> B_u
     freq (  33-  33) =        107.8  [cm-1]   --> A_g
     freq (  34-  34) =        109.8  [cm-1]   --> B_u
     freq (  35-  35) =        109.9  [cm-1]   --> A_g
     freq (  36-  36) =        110.8  [cm-1]   --> A_u
     freq (  37-  37) =        112.4  [cm-1]   --> B_u
     freq (  38-  38) =        114.5  [cm-1]   --> B_g
     freq (  39-  39) =        115.6  [cm-1]   --> A_g
     freq (  40-  40) =        116.0  [cm-1]   --> A_u
     freq (  41-  41) =        117.6  [cm-1]   --> B_u
     freq (  42-  42) =        119.2  [cm-1]   --> A_g
     freq (  43-  43) =        126.4  [cm-1]   --> B_u
     freq (  44-  44) =        128.3  [cm-1]   --> A_u
     freq (  45-  45) =        128.7  [cm-1]   --> A_g
     freq (  46-  46) =        128.8  [cm-1]   --> B_g
     freq (  47-  47) =        132.5  [cm-1]   --> B_u
     freq (  48-  48) =        142.0  [cm-1]   --> A_g
     freq (  49-  49) =        171.4  [cm-1]   --> B_g
     freq (  50-  50) =        172.1  [cm-1]   --> A_u
     freq (  51-  51) =        181.1  [cm-1]   --> B_u
     freq (  52-  52) =        181.1  [cm-1]   --> A_g
     freq (  53-  53) =        200.7  [cm-1]   --> B_g
     freq (  54-  54) =        201.4  [cm-1]   --> A_u
     freq (  55-  55) =        205.2  [cm-1]   --> B_g
     freq (  56-  56) =        207.3  [cm-1]   --> A_u
     freq (  57-  57) =        208.3  [cm-1]   --> B_u
     freq (  58-  58) =        213.7  [cm-1]   --> A_g
     freq (  59-  59) =        216.7  [cm-1]   --> A_g
     freq (  60-  60) =        217.3  [cm-1]   --> B_u
     freq (  61-  61) =        241.4  [cm-1]   --> B_g
     freq (  62-  62) =        242.0  [cm-1]   --> B_u
     freq (  63-  63) =        243.5  [cm-1]   --> A_u
     freq (  64-  64) =        246.6  [cm-1]   --> A_g
     freq (  65-  65) =        251.1  [cm-1]   --> A_g
     freq (  66-  66) =        251.3  [cm-1]   --> B_u

     General routines

     Parallel routines

     INITIALIZATION:

     DYNAMICAL MATRIX:

                                        0.00s GPU  (   10140 calls)

                                        0.00s GPU  (     582 calls)

      General routines

      Additional routines
                                        0.00s GPU  (  527766 calls)
                                        0.00s GPU  (  527766 calls)

   This run was terminated on:   8:42:30  14May2025

   JOB DONE.