     Program PWSCF v.7.3.1 starts on  7May2025 at 20:42: 1

     Waiting for input...
     Reading input from standard input
Warning: card &CELL ignored
Warning: card / ignored
Warning: card &FCP ignored
Warning: card / ignored
Warning: card &RISM ignored
Warning: card / ignored

     Current dimensions of program PWSCF are:
     Max number of different atomic species (ntypx) = 10
     Max number of k-points (npk) =  40000
     Max angular momentum in pseudopotentials (lmaxx) =  4

     IMPORTANT: XC functional enforced from input :
     Exchange-correlation= PBE
                           (   1   4   3   4   0   0   0)
     Any further DFT definition will be discarded
     Please, verify this is what you really want

     Message from routine setup:
     using ibrav=0 with symmetry is DISCOURAGED, use correct ibrav instead

     K-points division:     npool     =      12
     R & G space division:  proc/nbgrp/npool/nimage =      32
     Subspace diagonalization in iterative solution of the eigenvalue problem:
     one sub-group per band group will be used

     Using Slab Decomposition

     bravais-lattice index     =            0
     lattice parameter (alat)  =      14.4200  a.u.
     unit-cell volume          =    4677.9756 (a.u.)^3
     number of atoms/cell      =           22
     number of atomic types    =            2
     number of electrons       =       350.00
     number of Kohn-Sham states=          210
     kinetic-energy cutoff     =     100.0000  Ry
     charge density cutoff     =     400.0000  Ry
     scf convergence threshold =      1.0E-12
     mixing beta               =       0.7000
     number of iterations used =            8  plain     mixing
     Exchange-correlation= PBE
                           (   1   4   3   4   0   0   0)

     celldm(1)=  14.419985  celldm(2)=   0.000000  celldm(3)=   0.000000
     celldm(4)=   0.000000  celldm(5)=   0.000000  celldm(6)=   0.000000

     crystal axes: (cart. coord. in units of alat)
               a(1) = (   0.866025   0.500000   0.000000 )
               a(2) = (  -0.866025   0.500000   0.000000 )
               a(3) = (  -0.577350   0.000000   1.801494 )

     reciprocal axes: (cart. coord. in units 2 pi/alat)
               b(1) = (  0.577350  1.000000  0.185032 )
               b(2) = ( -0.577350  1.000000 -0.185032 )
               b(3) = (  0.000000 -0.000000  0.555095 )

     PseudoPot. # 1 for Nb read from file:
     /scratch-shared/mroesner/Nb3X8_cDFPT/pp/Nb_ONCV_PBE-1.2.upf
     MD5 check sum: 2c750ac0b6910ff4cf0ab5f6c4124a64
     Pseudo is Norm-conserving, Zval = 13.0
     Generated using ONCVPSP code by D. R. Hamann
     Using radial grid of  602 points,  6 beta functions with:
                l(1) =   0
                l(2) =   0
                l(3) =   1
                l(4) =   1
                l(5) =   2
                l(6) =   2

     PseudoPot. # 2 for I  read from file:
     /scratch-shared/mroesner/Nb3X8_cDFPT/pp/I_ONCV_PBE-1.2.upf
     MD5 check sum: 8277ef51204d8074ead4596f3b37a2aa
     Pseudo is Norm-conserving, Zval = 17.0
     Generated using ONCVPSP code by D. R. Hamann
     Using radial grid of  602 points,  6 beta functions with:
                l(1) =   0
                l(2) =   0
                l(3) =   1
                l(4) =   1
                l(5) =   2
                l(6) =   2

     atomic species   valence    mass     pseudopotential
     Nb               13.00    92.90637     Nb( 1.00)
     I                17.00   126.90447     I ( 1.00)

     12 Sym. Ops., with inversion, found

                                    s                        frac. trans.

      isym =  1     identity

 cryst.   s( 1) = (     1          0          0      )
                  (     0          1          0      )
                  (     0          0          1      )

 cart.    s( 1) = (  1.0000000  0.0000000  0.0000000 )
                  (  0.0000000  1.0000000 -0.0000000 )
                  (  0.0000000  0.0000000  1.0000000 )

      isym =  2     180 deg rotation - cart. axis [0,1,0]

[...]

      isym =  3     120 deg rotation - cryst. axis [0,0,1]

[...]

      isym =  6     180 deg rotation - cryst. axis [2,1,0]

[...]

      isym =  7     inversion

[...]

      isym =  8     inv. 180 deg rotation - cart. axis [0,1,0]

[...]

      isym =  9     inv. 120 deg rotation - cryst. axis [0,0,1]

 cryst.   s( 9) = (     0         -1          0      )
                  (     1          1          0      )
                  (     0          1         -1      )

 cart.    s( 9) = (  0.5000000  0.8660254 -0.0000000 )
                  ( -0.8660254  0.5000000  0.0000000 )
                  (  0.0000000  0.0000000 -1.0000000 )

[...]

 cryst.   s(10) = (     1          1          0      )
                  (    -1          0          0      )
                  (    -1          0         -1      )

 cart.    s(10) = (  0.5000000 -0.8660254 -0.0000000 )
                  (  0.8660254  0.5000000 -0.0000000 )
                  (  0.0000000  0.0000000 -1.0000000 )

[...]

      isym = 12     inv. 180 deg rotation - cryst. axis [2,1,0]

 cryst.   s(12) = (    -1          0          0      )
                  (     1          1          0      )
                  (     1          0          1      )

 cart.    s(12) = ( -0.5000000 -0.8660254  0.0000000 )
                  ( -0.8660254  0.5000000  0.0000000 )
                  (  0.0000000  0.0000000  1.0000000 )

   Cartesian axes

     site n.     atom                  positions (alat units)
         1        Nb     tau(   1) = (  -1.2167714   0.5000000   1.3453228  )
         2        Nb     tau(   2) = (  -0.6906524   0.1962451   1.3453228  )
         3        Nb     tau(   3) = (  -0.6906524   0.8037549   1.3453228  )
         4        Nb     tau(   4) = (   0.6394211   0.5000000   0.4561713  )
         5        Nb     tau(   5) = (   0.1133021   0.8037549   0.4561713  )
         6        Nb     tau(   6) = (   0.1133021   0.1962451   0.4561713  )
         7        I      tau(   7) = (   0.2886751   0.5000000   1.0651449  )
         8        I      tau(   8) = (  -0.5701187   0.5000000   1.1450936  )
         9        I      tau(   9) = (  -0.1479534   0.2562627   1.1450936  )
        10        I      tau(  10) = (  -0.1479534   0.7437373   1.1450936  )
        11        I      tau(  11) = (  -0.8660254   0.5000000   1.5362875  )
        12        I      tau(  12) = (  -0.0008883   0.5000000   1.5922517  )
        13        I      tau(  13) = (  -0.4325686   0.7492307   1.5922517  )
        14        I      tau(  14) = (  -0.4325686   0.2507693   1.5922517  )
        15        I      tau(  15) = (  -0.5764620   0.5000000   0.2092424  )
        16        I      tau(  16) = (  -0.1447817   0.2507693   0.2092424  )
        17        I      tau(  17) = (  -0.1447817   0.7492307   0.2092424  )
        18        I      tau(  18) = (   0.2886751   0.5000000   0.2652066  )
        19        I      tau(  19) = (  -0.0072316   0.5000000   0.6564006  )
        20        I      tau(  20) = (  -0.4293969   0.7437373   0.6564006  )
        21        I      tau(  21) = (  -0.4293969   0.2562627   0.6564006  )
        22        I      tau(  22) = (  -0.8660254   0.5000000   0.7363493  )

     DFT-D3 Dispersion Correction (no 3-body):
       Reference C6 values for interpolation:

         atom   Coordination number   C6
         Nb         0.000          2950.50
         Nb         1.954          1161.16
         Nb         2.922           857.79
         I          0.000           703.93
         I          0.997           717.00

       Values used:

         atom   Coordination number  R0_AB[au]  C6      C8
         Nb         7.932            3.647    857.79 111659.18
         Nb         7.932            3.647    857.79 111659.18
         Nb         7.932            3.647    857.79 111659.18
         Nb         7.932            3.647    857.79 111659.18
         Nb         7.932            3.647    857.79 111659.18
         Nb         7.932            3.647    857.79 111659.18
         I          4.875            3.532    717.00  65856.01
         I          4.178            3.532    717.00  65856.01
         I          4.178            3.532    717.00  65856.01
         I          4.178            3.532    717.00  65856.01
         I          5.098            3.532    717.00  65856.01
         I          4.083            3.532    717.00  65856.01
         I          4.083            3.532    717.00  65856.01
         I          4.083            3.532    717.00  65856.01
         I          4.083            3.532    717.00  65856.01
         I          4.083            3.532    717.00  65856.01
         I          4.083            3.532    717.00  65856.01
         I          5.098            3.532    717.00  65856.01
         I          4.178            3.532    717.00  65856.01
         I          4.178            3.532    717.00  65856.01
         I          4.178            3.532    717.00  65856.01
         I          4.875            3.532    717.00  65856.01

         Molecular C6 ( Ry / a.u.^6 ) =    363889.37

   Crystallographic axes

     site n.     atom                  positions (cryst. coord.)
         1        Nb     tau(   1) = (  0.0464239  0.9535761  0.7467817  )
         2        Nb     tau(   2) = (  0.0464239  0.3460662  0.7467817  )
         3        Nb     tau(   3) = (  0.6539338  0.9535761  0.7467817  )
         4        Nb     tau(   4) = (  0.9535761  0.0464239  0.2532183  )
         5        Nb     tau(   5) = (  0.9535761  0.6539338  0.2532183  )
         6        Nb     tau(   6) = (  0.3460662  0.0464239  0.2532183  )
         7        I      tau(   7) = (  0.8637521  0.1362479  0.5912564  )
         8        I      tau(   8) = (  0.3827203  0.6172797  0.6356355  )
         9        I      tau(   9) = (  0.3827203  0.1298052  0.6356355  )
        10        I      tau(  10) = (  0.8701948  0.6172797  0.6356355  )
        11        I      tau(  11) = (  0.2842617  0.7157383  0.8527852  )
        12        I      tau(  12) = (  0.7941040  0.2058960  0.8838506  )
        13        I      tau(  13) = (  0.7941040  0.7043574  0.8838506  )
        14        I      tau(  14) = (  0.2956426  0.2058960  0.8838506  )
        15        I      tau(  15) = (  0.2058960  0.7941040  0.1161494  )
        16        I      tau(  16) = (  0.2058960  0.2956426  0.1161494  )
        17        I      tau(  17) = (  0.7043574  0.7941040  0.1161494  )
        18        I      tau(  18) = (  0.7157383  0.2842617  0.1472148  )
        19        I      tau(  19) = (  0.6172797  0.3827203  0.3643645  )
        20        I      tau(  20) = (  0.6172797  0.8701948  0.3643645  )
        21        I      tau(  21) = (  0.1298052  0.3827203  0.3643645  )
        22        I      tau(  22) = (  0.1362479  0.8637521  0.4087436  )

     number of k points=    32  Gaussian smearing, width (Ry)=  0.0037
                       cart. coord. in units 2pi/alat
        k(    1) = (   0.0000000   0.0000000   0.0000000), wk =   0.0092593
        k(    2) = (   0.0000000   0.0000000   0.0925158), wk =   0.0185185
[...]
     atom    2 type  1   force =    -0.00007165    0.00012410   -0.00000253
     atom    3 type  1   force =    -0.00007165   -0.00012410   -0.00000253
     atom    4 type  1   force =    -0.00014330    0.00000000    0.00000253
     atom    5 type  1   force =     0.00007165   -0.00012410    0.00000253
     atom    6 type  1   force =     0.00007165    0.00012410    0.00000253
     atom    7 type  2   force =     0.00000000   -0.00000000    0.00003030
     atom    8 type  2   force =     0.00000335   -0.00000000    0.00002060
     atom    9 type  2   force =    -0.00000168    0.00000291    0.00002060
     atom   10 type  2   force =    -0.00000168   -0.00000291    0.00002060
     atom   11 type  2   force =     0.00000000   -0.00000000   -0.00001744
     atom   12 type  2   force =     0.00002352    0.00000000   -0.00002715
     atom   13 type  2   force =    -0.00001176    0.00002037   -0.00002715
     atom   14 type  2   force =    -0.00001176   -0.00002037   -0.00002715
     atom   15 type  2   force =    -0.00002352    0.00000000    0.00002715
     atom   16 type  2   force =     0.00001176   -0.00002037    0.00002715
     atom   17 type  2   force =     0.00001176    0.00002037    0.00002715
     atom   18 type  2   force =     0.00000000   -0.00000000    0.00001744
     atom   19 type  2   force =    -0.00000335   -0.00000000   -0.00002060
     atom   20 type  2   force =     0.00000168   -0.00000291   -0.00002060
     atom   21 type  2   force =     0.00000168    0.00000291   -0.00002060
     atom   22 type  2   force =     0.00000000   -0.00000000   -0.00003030
     The non-local contrib.  to forces
     atom    1 type  1   force =    -0.15396774    0.00000000   -0.03480527
     atom    2 type  1   force =     0.07698387   -0.13333997   -0.03480527
     atom    3 type  1   force =     0.07698387    0.13333997   -0.03480527
     atom    4 type  1   force =     0.15396774   -0.00000000    0.03480527
     atom    5 type  1   force =    -0.07698387    0.13333997    0.03480527
     atom    6 type  1   force =    -0.07698387   -0.13333997    0.03480527
     atom    7 type  2   force =    -0.00000000    0.00000000    0.68332247
     atom    8 type  2   force =    -0.25229303    0.00000000    0.33575591
     atom    9 type  2   force =     0.12614651   -0.21849217    0.33575591
     atom   10 type  2   force =     0.12614651    0.21849217    0.33575591
     atom   11 type  2   force =     0.00000000   -0.00000000   -0.35382618
     atom   12 type  2   force =     0.31147698   -0.00000000   -0.43018917
     atom   13 type  2   force =    -0.15573849    0.26974698   -0.43018917
     atom   14 type  2   force =    -0.15573849   -0.26974698   -0.43018917
     atom   15 type  2   force =    -0.31147698    0.00000000    0.43018917
     atom   16 type  2   force =     0.15573849   -0.26974698    0.43018917
     atom   17 type  2   force =     0.15573849    0.26974698    0.43018917
     atom   18 type  2   force =    -0.00000000   -0.00000000    0.35382618
     atom   19 type  2   force =     0.25229303    0.00000000   -0.33575591
     atom   20 type  2   force =    -0.12614651    0.21849217   -0.33575591
     atom   21 type  2   force =    -0.12614651   -0.21849217   -0.33575591
     atom   22 type  2   force =     0.00000000   -0.00000000   -0.68332247
     The ionic contribution  to forces
     atom    1 type  1   force =     7.85493337   -0.00000000   -0.53399047
     atom    2 type  1   force =    -3.92746669    6.80257184   -0.53399047
     atom    3 type  1   force =    -3.92746669   -6.80257184   -0.53399047
     atom    4 type  1   force =    -7.85493338   -0.00000000    0.53399047
     atom    5 type  1   force =     3.92746669   -6.80257184    0.53399047
     atom    6 type  1   force =     3.92746669    6.80257184    0.53399047
     atom    7 type  2   force =     0.00000000   -0.00000000  -25.63191219
     atom    8 type  2   force =     7.14525086   -0.00000000  -14.18594533
     atom    9 type  2   force =    -3.57262543    6.18796876  -14.18594533
     atom   10 type  2   force =    -3.57262543   -6.18796876  -14.18594533
     atom   11 type  2   force =    -0.00000000   -0.00000000   17.94551778
     atom   12 type  2   force =   -13.20824764   -0.00000000   18.01547666
     atom   13 type  2   force =     6.60412382  -11.43867799   18.01547667
     atom   14 type  2   force =     6.60412382   11.43867799   18.01547667
     atom   15 type  2   force =    13.20824764   -0.00000000  -18.01547666
     atom   16 type  2   force =    -6.60412382   11.43867800  -18.01547667
     atom   17 type  2   force =    -6.60412382  -11.43867800  -18.01547667
     atom   18 type  2   force =     0.00000000   -0.00000000  -17.94551778
     atom   19 type  2   force =    -7.14525086   -0.00000000   14.18594533
     atom   20 type  2   force =     3.57262543   -6.18796876   14.18594533
     atom   21 type  2   force =     3.57262543    6.18796876   14.18594533
     atom   22 type  2   force =    -0.00000000   -0.00000000   25.63191219
     The local contribution  to forces
     atom    1 type  1   force =    -7.70079216    0.00000001    0.56889200
     atom    2 type  1   force =     3.85039606   -6.66908164    0.56889200
     atom    3 type  1   force =     3.85039605    6.66908167    0.56889200
     atom    4 type  1   force =     7.70079215    0.00000001   -0.56889196
     atom    5 type  1   force =    -3.85039605    6.66908167   -0.56889196
     atom    6 type  1   force =    -3.85039606   -6.66908164   -0.56889196
     atom    7 type  2   force =     0.00000000    0.00000002   24.94837939
     atom    8 type  2   force =    -6.89441165    0.00000001   13.85149076
     atom    9 type  2   force =     3.44720580   -5.97073563   13.85149076
     atom   10 type  2   force =     3.44720580    5.97073567   13.85149076
     atom   11 type  2   force =    -0.00000002    0.00000002  -17.59410519
     atom   12 type  2   force =    12.89729175    0.00000002  -17.58530208
     atom   13 type  2   force =    -6.44864590   11.16938232  -17.58530208
     atom   14 type  2   force =    -6.44864590  -11.16938228  -17.58530208
     atom   15 type  2   force =   -12.89729176    0.00000002   17.58530212
     atom   16 type  2   force =     6.44864588  -11.16938227   17.58530213
     atom   17 type  2   force =     6.44864588   11.16938232   17.58530212
     atom   18 type  2   force =     0.00000000    0.00000002   17.59410526
     atom   19 type  2   force =     6.89441163    0.00000001  -13.85149072
     atom   20 type  2   force =    -3.44720582    5.97073568  -13.85149072
     atom   21 type  2   force =    -3.44720582   -5.97073563  -13.85149072
     atom   22 type  2   force =    -0.00000002    0.00000002  -24.94837934
     The core correction contribution to forces
     atom    1 type  1   force =     0.00000000    0.00000000    0.00000000
     atom    2 type  1   force =     0.00000000    0.00000000    0.00000000
     atom    3 type  1   force =     0.00000000    0.00000000    0.00000000
     atom    4 type  1   force =     0.00000000    0.00000000    0.00000000
     atom    5 type  1   force =     0.00000000    0.00000000    0.00000000
     atom    6 type  1   force =     0.00000000    0.00000000    0.00000000
     atom    7 type  2   force =     0.00000000    0.00000000    0.00000000
     atom    8 type  2   force =     0.00000000    0.00000000    0.00000000
     atom    9 type  2   force =     0.00000000    0.00000000    0.00000000
     atom   10 type  2   force =     0.00000000    0.00000000    0.00000000
     atom   11 type  2   force =     0.00000000    0.00000000    0.00000000
     atom   12 type  2   force =     0.00000000    0.00000000    0.00000000
     atom   13 type  2   force =     0.00000000    0.00000000    0.00000000
     atom   14 type  2   force =     0.00000000    0.00000000    0.00000000
     atom   15 type  2   force =     0.00000000    0.00000000    0.00000000
     atom   16 type  2   force =     0.00000000    0.00000000    0.00000000
     atom   17 type  2   force =     0.00000000    0.00000000    0.00000000
     atom   18 type  2   force =     0.00000000    0.00000000    0.00000000
     atom   19 type  2   force =     0.00000000    0.00000000    0.00000000
     atom   20 type  2   force =     0.00000000    0.00000000    0.00000000
     atom   21 type  2   force =     0.00000000    0.00000000    0.00000000
     atom   22 type  2   force =     0.00000000    0.00000000    0.00000000
     The Hubbard contrib.    to forces
     atom    1 type  1   force =     0.00000000    0.00000000    0.00000000
     atom    2 type  1   force =     0.00000000    0.00000000    0.00000000
     atom    3 type  1   force =     0.00000000    0.00000000    0.00000000
     atom    4 type  1   force =     0.00000000    0.00000000    0.00000000
     atom    5 type  1   force =     0.00000000    0.00000000    0.00000000
     atom    6 type  1   force =     0.00000000    0.00000000    0.00000000
     atom    7 type  2   force =     0.00000000    0.00000000    0.00000000
     atom    8 type  2   force =     0.00000000    0.00000000    0.00000000
     atom    9 type  2   force =     0.00000000    0.00000000    0.00000000
     atom   10 type  2   force =     0.00000000    0.00000000    0.00000000
     atom   11 type  2   force =     0.00000000    0.00000000    0.00000000
     atom   12 type  2   force =     0.00000000    0.00000000    0.00000000
     atom   13 type  2   force =     0.00000000    0.00000000    0.00000000
     atom   14 type  2   force =     0.00000000    0.00000000    0.00000000
     atom   15 type  2   force =     0.00000000    0.00000000    0.00000000
     atom   16 type  2   force =     0.00000000    0.00000000    0.00000000
     atom   17 type  2   force =     0.00000000    0.00000000    0.00000000
     atom   18 type  2   force =     0.00000000    0.00000000    0.00000000
     atom   19 type  2   force =     0.00000000    0.00000000    0.00000000
     atom   20 type  2   force =     0.00000000    0.00000000    0.00000000
     atom   21 type  2   force =     0.00000000    0.00000000    0.00000000
     atom   22 type  2   force =     0.00000000    0.00000000    0.00000000
     The SCF correction term to forces
     atom    1 type  1   force =     0.00000079    0.00000000    0.00000047
     atom    2 type  1   force =    -0.00000040    0.00000068    0.00000047
     atom    3 type  1   force =    -0.00000040   -0.00000068    0.00000047
     atom    4 type  1   force =    -0.00000079    0.00000000   -0.00000047
     atom    5 type  1   force =     0.00000040   -0.00000068   -0.00000047
     atom    6 type  1   force =     0.00000040    0.00000068   -0.00000047
     atom    7 type  2   force =    -0.00000000    0.00000000   -0.00000094
     atom    8 type  2   force =    -0.00000071    0.00000000    0.00000057
     atom    9 type  2   force =     0.00000036   -0.00000061    0.00000057
     atom   10 type  2   force =     0.00000036    0.00000061    0.00000057
     atom   11 type  2   force =    -0.00000000    0.00000000    0.00000010
     atom   12 type  2   force =    -0.00000098    0.00000000    0.00000011
     atom   13 type  2   force =     0.00000049   -0.00000085    0.00000011
     atom   14 type  2   force =     0.00000049    0.00000085    0.00000011
     atom   15 type  2   force =     0.00000098    0.00000000   -0.00000011
     atom   16 type  2   force =    -0.00000049    0.00000085   -0.00000011
     atom   17 type  2   force =    -0.00000049   -0.00000085   -0.00000011
     atom   18 type  2   force =    -0.00000000    0.00000000   -0.00000010
     atom   19 type  2   force =     0.00000071    0.00000000   -0.00000057
     atom   20 type  2   force =    -0.00000036    0.00000061   -0.00000057
     atom   21 type  2   force =    -0.00000036   -0.00000061   -0.00000057
     atom   22 type  2   force =     0.00000000    0.00000000    0.00000094

     DFT-D3 dispersion contribution to forces:
     atom    1 type  1   force =    -0.00003096    0.00000000   -0.00009925
     atom    2 type  1   force =     0.00001548   -0.00002682   -0.00009925
     atom    3 type  1   force =     0.00001548    0.00002682   -0.00009925
     atom    4 type  1   force =     0.00003096    0.00000000    0.00009925
     atom    5 type  1   force =    -0.00001548    0.00002682    0.00009925
     atom    6 type  1   force =    -0.00001548   -0.00002682    0.00009925
     atom    7 type  2   force =     0.00000000    0.00000000    0.00024160
     atom    8 type  2   force =     0.00145788    0.00000000   -0.00128129
     atom    9 type  2   force =    -0.00072894    0.00126256   -0.00128129
     atom   10 type  2   force =    -0.00072894   -0.00126256   -0.00128129
     atom   11 type  2   force =     0.00000000    0.00000000    0.00239608
     atom   12 type  2   force =    -0.00049660    0.00000000   -0.00001265
     atom   13 type  2   force =     0.00024830   -0.00043007   -0.00001265
     atom   14 type  2   force =     0.00024830    0.00043007   -0.00001265
     atom   15 type  2   force =     0.00049660    0.00000000    0.00001265
     atom   16 type  2   force =    -0.00024830    0.00043007    0.00001265
     atom   17 type  2   force =    -0.00024830   -0.00043007    0.00001265
     atom   18 type  2   force =     0.00000000    0.00000000   -0.00239608
     atom   19 type  2   force =    -0.00145788    0.00000000    0.00128129
     atom   20 type  2   force =     0.00072894   -0.00126256    0.00128129
     atom   21 type  2   force =     0.00072894    0.00126256    0.00128129
     atom   22 type  2   force =    -0.00000000    0.00000000   -0.00024160

     Total force =     0.000369     Total SCF correction =     0.000004

     DFT-D3 dispersion Force =     0.005979

     Computing stress (Cartesian axis) and pressure

          total   stress  (Ry/bohr**3)                   (kbar)     P=        3.05
   0.00000919  -0.00000000  -0.00000000            1.35       -0.00       -0.00
  -0.00000000   0.00000919  -0.00000000           -0.00        1.35       -0.00
  -0.00000000   0.00000000   0.00004380           -0.00        0.00        6.44

     kinetic stress (kbar)  33366.12      0.00      0.00
                               -0.00  33366.12     -0.00
                                0.00      0.00  33311.78

     local   stress (kbar) -13651.64      0.00     -0.00
                                0.00 -13651.64     -0.00
                               -0.00     -0.00  -3428.13

     nonloc. stress (kbar)  -2660.03      0.00      0.00
                               -0.00  -2660.03     -0.00
                                0.00     -0.00  -2629.92

     hartree stress (kbar)  11848.66      0.00      0.00
                                0.00  11848.66      0.00
                                0.00      0.00   7095.23

     exc-cor stress (kbar)  -3932.97     -0.00      0.00
                               -0.00  -3932.97      0.00
                                0.00      0.00  -3933.67

     corecor stress (kbar)      0.00      0.00      0.00
                                0.00      0.00      0.00
                                0.00      0.00      0.00

     ewald   stress (kbar) -24957.42     -0.00      0.00
                               -0.00 -24957.42      0.00
                                0.00      0.00 -30396.05

     hubbard stress (kbar)      0.00      0.00      0.00
                                0.00      0.00      0.00
                                0.00      0.00      0.00

     DFT-D   stress (kbar)    -11.38      0.00     -0.00
                                0.00    -11.38      0.00
                               -0.00      0.00    -12.79

     XDM     stress (kbar)      0.00      0.00      0.00
                                0.00      0.00      0.00
                                0.00      0.00      0.00

     dft-nl  stress (kbar)      0.00      0.00      0.00
                                0.00      0.00      0.00
                                0.00      0.00      0.00

     TS-vdW  stress (kbar)      0.00      0.00      0.00
                                0.00      0.00      0.00
                                0.00      0.00      0.00

     MDB     stress (kbar)      0.00      0.00      0.00
                                0.00      0.00      0.00
                                0.00      0.00      0.00

     3D-RISM stress (kbar)      0.00      0.00      0.00
                                0.00      0.00      0.00
                                0.00      0.00      0.00

     Writing all to output data dir ./out/Nb3I8.save/ :
     XML data file, charge density, pseudopotentials, collected wavefunctions

     General routines

     Parallel routines

   This run was terminated on:  20:47: 0   7May2025

   JOB DONE.