     Program PHONON v.7.3.1 starts on  5Jul2025 at 18:51:18

     Waiting for input...
     Reading input from standard input
     Run is not recoverable starting from scratch

     Reading xml data from directory:

     ./out/Nb3Br8.save/

     K-points division:     npool     =      12
     R & G space division:  proc/nbgrp/npool/nimage =      32
     Subspace diagonalization in iterative solution of the eigenvalue problem:
     a serial algorithm will be used

     IMPORTANT: XC functional enforced from input :
     Exchange-correlation= PBE
                           (   1   4   3   4   0   0   0)
     Any further DFT definition will be discarded
     Please, verify this is what you really want

     Using Slab Decomposition

     Reading collected, re-writing distributed wavefunctions in ./out/

     Dynamical matrices for ( 2, 2, 2)  uniform grid of q-points
     (   4 q-points):
       N         xq(1)         xq(2)         xq(3)
       1   0.000000000   0.000000000   0.000000000
       2   0.000000000   0.000000000  -0.273399961
       3   0.288675135  -0.500000000   0.091133320
       4   0.288675135  -0.500000000  -0.182266641

     Number and degeneracy of irreps per q-point
       N         xq(1)         xq(2)         xq(3)   N irreps
       1   0.000000000   0.000000000   0.000000000      44
        1   1   1   1   1   1   1   1   1   1   1   2   2   2   2   2   2   2
   2   2   2   2   1   1   1   1   1   1   1   1   1   1   1   2   2   2
   2   2   2   2   2   2   2   2
       2   0.000000000   0.000000000  -0.273399961      44
        1   1   1   1   1   1   1   1   1   1   1   2   2   2   2   2   2   2
   2   2   2   2   1   1   1   1   1   1   1   1   1   1   1   2   2   2
   2   2   2   2   2   2   2   2
Eigenvectors exchange needed   15   62
       3   0.288675135  -0.500000000   0.091133320      65
        1   1   1   1   1   1   1   1   1   1   1   1   1   1   2   1   1   1
   1   1   1   1   1   1   1   1   1   1   1   1   1   1   1   1   1   1
   1   1   1   1   1   1   1   1   1   1   1   1   1   1   1   1   1   1
   1   1   1   1   1   1   1   1   1   1   1
Eigenvectors exchange needed   15   62
       4   0.288675135  -0.500000000  -0.182266641      65
        1   1   1   1   1   1   1   1   1   1   1   1   1   1   2   1   1   1
   1   1   1   1   1   1   1   1   1   1   1   1   1   1   1   1   1   1
   1   1   1   1   1   1   1   1   1   1   1   1   1   1   1   1   1   1
   1   1   1   1   1   1   1   1   1   1   1

     Saving dvscf to file. Distribute only q points, not irreducible representations.

     Calculation of q =    0.0000000   0.0000000   0.0000000

     Nb3Br8

     bravais-lattice index     =            0
     lattice parameter (alat)  =      13.4224  a.u.
     unit-cell volume          =    3829.9744 (a.u.)^3
     number of atoms/cell      =           22
     number of atomic types    =            2
     kinetic-energy cut-off    =     100.0000  Ry
     charge density cut-off    =     400.0000  Ry
     convergence threshold     =      1.0E-17
     beta                      =       0.7000
     number of iterations used =            4
     Exchange-correlation= PBE
                           (   1   4   3   4   0   0   0)

     celldm(1)=   13.42243  celldm(2)=    0.00000  celldm(3)=    0.00000
     celldm(4)=    0.00000  celldm(5)=    0.00000  celldm(6)=    0.00000

     crystal axes: (cart. coord. in units of alat)
               a(1) = (  0.8660  0.5000  0.0000 )
               a(2) = ( -0.8660  0.5000  0.0000 )
               a(3) = ( -0.5774  0.0000  1.8288 )

     reciprocal axes: (cart. coord. in units 2 pi/alat)
               b(1) = (  0.5774  1.0000  0.1823 )
               b(2) = ( -0.5774  1.0000 -0.1823 )
               b(3) = (  0.0000 -0.0000  0.5468 )

     Atoms inside the unit cell:

     Cartesian axes

     site n.  atom      mass           positions (alat units)
        1  Nb     92.9064   tau(    1) = (    0.23350    0.00000   -0.46226  )
        2  Nb     92.9064   tau(    2) = (   -0.11675    0.20221   -0.46226  )
        3  Nb     92.9064   tau(    3) = (   -0.11675   -0.20221   -0.46226  )
        4  Nb     92.9064   tau(    4) = (   -0.23350   -0.00000    0.46226  )
        5  Nb     92.9064   tau(    5) = (    0.11675   -0.20221    0.46226  )
        6  Nb     92.9064   tau(    6) = (    0.11675    0.20221    0.46226  )
        7  Br     79.9040   tau(    7) = (    0.00000    0.00000   -0.74048  )
        8  Br     79.9040   tau(    8) = (    0.87143    0.00000   -0.66496  )
        9  Br     79.9040   tau(    9) = (    0.43031    0.25468   -0.66496  )
       10  Br     79.9040   tau(   10) = (    0.43031   -0.25468   -0.66496  )
       11  Br     79.9040   tau(   11) = (    0.57735   -0.00000   -0.26262  )
       12  Br     79.9040   tau(   12) = (   -0.28804    0.00000   -0.21578  )
       13  Br     79.9040   tau(   13) = (    0.14402   -0.24945   -0.21578  )
       14  Br     79.9040   tau(   14) = (    0.14402    0.24945   -0.21578  )
       15  Br     79.9040   tau(   15) = (    0.28804   -0.00000    0.21578  )
       16  Br     79.9040   tau(   16) = (   -0.14402    0.24945    0.21578  )
       17  Br     79.9040   tau(   17) = (   -0.14402   -0.24945    0.21578  )
       18  Br     79.9040   tau(   18) = (   -0.57735    0.00000    0.26262  )
       19  Br     79.9040   tau(   19) = (   -0.87143   -0.00000    0.66496  )
       20  Br     79.9040   tau(   20) = (   -0.43031   -0.25468    0.66496  )
       21  Br     79.9040   tau(   21) = (   -0.43031    0.25468    0.66496  )
       22  Br     79.9040   tau(   22) = (   -0.00000   -0.00000    0.74048  )

     Computing dynamical matrix for
                    q = (   0.0000000   0.0000000   0.0000000 )

     13 Sym.Ops. (with q -> -q+G )

     G cutoff = 1825.4196  (  16158 G-vectors)     FFT grid: (180,180,180)

     number of k points=    32  Marzari-Vanderbilt smearing, width (Ry)=  0.0037

     PseudoPot. # 1 for Nb read from file:
     /scratch-shared/mroesner/Nb3X8_cDFPT/pp/Nb_ONCV_PBE-1.2.upf
     MD5 check sum: 2c750ac0b6910ff4cf0ab5f6c4124a64
     Pseudo is Norm-conserving, Zval = 13.0
     Generated using ONCVPSP code by D. R. Hamann
     Using radial grid of  602 points,  6 beta functions with:
                l(1) =   0
                l(2) =   0
                l(3) =   1
                l(4) =   1
                l(5) =   2
                l(6) =   2

     PseudoPot. # 2 for Br read from file:
     /scratch-shared/mroesner/Nb3X8_cDFPT/pp/Br_ONCV_PBE-1.2.upf
     MD5 check sum: 5b50323dbf1c0ae0ed9e7f1e72c3f86c
     Pseudo is Norm-conserving, Zval =  7.0
     Generated using ONCVPSP code by D. R. Hamann
     Using radial grid of  602 points,  6 beta functions with:
                l(1) =   0
                l(2) =   0
                l(3) =   1
                l(4) =   1
                l(5) =   2
                l(6) =   2

     Mode symmetry, D_3d (-3m)  point group:

     Atomic displacements:
     There are   44 irreducible representations

     Representation     1      1 modes -  To be done

[...]

     Alpha used in Ewald sum =   2.8000

     Reading Grimme-D3 Hessian from file: ./out/Nb3Br8.hess

     Number of cells replicated along each semiaxis:    9   9   4
     Number of cells in the supercell:      3249
     Number of atoms in the supercell:     71478
     Hessian allocation dimension:  14152644

     Grimme-D3 Hessian read

     Computing dynamical matrix for q:     0.000000    0.000000    0.000000

     Writing Hessian on file dynamical.false.dat

     Dynamical matrix computed

     Representation #   1 mode #   1

     Self-consistent Calculation

     Pert. #  1: Fermi energy shift (Ry) =    -3.6243E-01    -4.0390E-27

      thresh= 1.000E-02 alpha_mix =  0.700 |ddv_scf|^2 =  1.538E-07

[...]

     End of self-consistent calculation

     Convergence has been achieved

[...]

     Representation #  12 modes #  12  13

[...]

     Pert. #  1: Fermi energy shift (Ry) =    -8.7511E-28    -2.9894E-44
     Pert. #  2: Fermi energy shift (Ry) =     2.6926E-28    -1.1958E-43

[...]

     Number of q in the star =    1
     List of q in the star:
          1   0.000000000   0.000000000   0.000000000

     Diagonalizing the dynamical matrix

     q = (    0.000000000   0.000000000   0.000000000 )

     freq (    1) =      -0.133303 [THz] =      -4.446493 [cm-1]
     freq (    2) =       0.121073 [THz] =       4.038575 [cm-1]
     freq (    3) =       0.121073 [THz] =       4.038575 [cm-1]
     freq (    4) =       0.594870 [THz] =      19.842726 [cm-1]
     freq (    5) =       0.594870 [THz] =      19.842726 [cm-1]
     freq (    6) =       1.354703 [THz] =      45.188027 [cm-1]
     freq (    7) =       2.114349 [THz] =      70.527076 [cm-1]
     freq (    8) =       2.114349 [THz] =      70.527076 [cm-1]
     freq (    9) =       2.128879 [THz] =      71.011764 [cm-1]
     freq (   10) =       2.128879 [THz] =      71.011764 [cm-1]
     freq (   11) =       2.527705 [THz] =      84.315177 [cm-1]
     freq (   12) =       2.527705 [THz] =      84.315177 [cm-1]
     freq (   13) =       2.602379 [THz] =      86.806022 [cm-1]
     freq (   14) =       2.714920 [THz] =      90.559981 [cm-1]
     freq (   15) =       2.718963 [THz] =      90.694827 [cm-1]
     freq (   16) =       2.718963 [THz] =      90.694827 [cm-1]
     freq (   17) =       3.417285 [THz] =     113.988364 [cm-1]
     freq (   18) =       3.417285 [THz] =     113.988364 [cm-1]
     freq (   19) =       3.531961 [THz] =     117.813525 [cm-1]
     freq (   20) =       3.531961 [THz] =     117.813525 [cm-1]
     freq (   21) =       3.540169 [THz] =     118.087340 [cm-1]
     freq (   22) =       3.569210 [THz] =     119.056016 [cm-1]
     freq (   23) =       3.730614 [THz] =     124.439894 [cm-1]
     freq (   24) =       3.838529 [THz] =     128.039561 [cm-1]
     freq (   25) =       3.852474 [THz] =     128.504697 [cm-1]
     freq (   26) =       3.852474 [THz] =     128.504697 [cm-1]
     freq (   27) =       3.860203 [THz] =     128.762523 [cm-1]
     freq (   28) =       3.860203 [THz] =     128.762523 [cm-1]
     freq (   29) =       4.057492 [THz] =     135.343349 [cm-1]
     freq (   30) =       4.099313 [THz] =     136.738375 [cm-1]
     freq (   31) =       4.121555 [THz] =     137.480277 [cm-1]
     freq (   32) =       4.188273 [THz] =     139.705735 [cm-1]
     freq (   33) =       4.268031 [THz] =     142.366181 [cm-1]
     freq (   34) =       4.268031 [THz] =     142.366181 [cm-1]
     freq (   35) =       4.298815 [THz] =     143.393025 [cm-1]
     freq (   36) =       4.298815 [THz] =     143.393025 [cm-1]
     freq (   37) =       4.641543 [THz] =     154.825219 [cm-1]
     freq (   38) =       4.641543 [THz] =     154.825219 [cm-1]
     freq (   39) =       4.682357 [THz] =     156.186634 [cm-1]
     freq (   40) =       4.682357 [THz] =     156.186634 [cm-1]
     freq (   41) =       4.957413 [THz] =     165.361508 [cm-1]
     freq (   42) =       5.015170 [THz] =     167.288058 [cm-1]
     freq (   43) =       5.311442 [THz] =     177.170622 [cm-1]
     freq (   44) =       5.311442 [THz] =     177.170622 [cm-1]
[...]
        20        Br     tau(  20) = (  -0.4303122  -0.2546774   0.6649604  )
        21        Br     tau(  21) = (  -0.4303122   0.2546774   0.6649604  )
        22        Br     tau(  22) = (  -0.0000000  -0.0000000   0.7404788  )

     DFT-D3 Dispersion Correction (no 3-body):
       Reference C6 values for interpolation:

         atom   Coordination number   C6
         Br         0.000           334.26
         Br         0.997           338.48
         Nb         0.000          2950.50
         Nb         1.954          1161.16
         Nb         2.922           857.79

       Values used:

         atom   Coordination number  R0_AB[au]  C6      C8
         Nb         8.090            3.647    857.79 111659.18
         Nb         8.090            3.647    857.79 111659.18
         Nb         8.090            3.647    857.79 111659.18
         Nb         8.090            3.647    857.79 111659.18
         Nb         8.090            3.647    857.79 111659.18
         Nb         8.090            3.647    857.79 111659.18
         Br         3.694            3.181    338.47  21401.43
         Br         2.847            3.181    338.47  21401.43
         Br         2.847            3.181    338.47  21401.43
         Br         2.847            3.181    338.47  21401.43
         Br         3.694            3.181    338.47  21401.43
         Br         2.834            3.181    338.47  21401.43
         Br         2.834            3.181    338.47  21401.43
         Br         2.834            3.181    338.47  21401.43
         Br         2.834            3.181    338.47  21401.43
         Br         2.834            3.181    338.47  21401.43
         Br         2.834            3.181    338.47  21401.43
         Br         3.694            3.181    338.47  21401.43
         Br         2.847            3.181    338.47  21401.43
         Br         2.847            3.181    338.47  21401.43
         Br         2.847            3.181    338.47  21401.43
         Br         3.694            3.181    338.47  21401.43

         Molecular C6 ( Ry / a.u.^6 ) =    219379.98

[...]

     Number of k-points >= 100: set verbosity='high' to print them.

     The potential is recalculated from file :
     ./out/_ph0/Nb3Br8.q_4/Nb3Br8.save/charge-density

     Starting wfcs are    0 atomic +  114 random wfcs

     Band Structure Calculation
     Davidson diagonalization with overlap
     c_bands:  1 eigenvalues not converged
     c_bands:  1 eigenvalues not converged

     ethr =  5.26E-12,  avg # of iterations = 77.3

     End of band structure calculation

     Number of k-points >= 100: set verbosity='high' to print the bands.

     the Fermi energy is     7.7833 ev

     Writing config to output data dir ./out/_ph0/Nb3Br8.q_4/Nb3Br8.save/ :
     XML data file

     Nb3Br8

     bravais-lattice index     =            0
     lattice parameter (alat)  =      13.4224  a.u.
     unit-cell volume          =    3829.9744 (a.u.)^3
     number of atoms/cell      =           22
     number of atomic types    =            2
     kinetic-energy cut-off    =     100.0000  Ry
     charge density cut-off    =     400.0000  Ry
     convergence threshold     =      1.0E-17
     beta                      =       0.7000
     number of iterations used =            4
     Exchange-correlation= PBE
                           (   1   4   3   4   0   0   0)

     celldm(1)=   13.42243  celldm(2)=    0.00000  celldm(3)=    0.00000
     celldm(4)=    0.00000  celldm(5)=    0.00000  celldm(6)=    0.00000

     crystal axes: (cart. coord. in units of alat)
               a(1) = (  0.8660  0.5000  0.0000 )
               a(2) = ( -0.8660  0.5000  0.0000 )
               a(3) = ( -0.5774  0.0000  1.8288 )

     reciprocal axes: (cart. coord. in units 2 pi/alat)
               b(1) = (  0.5774  1.0000  0.1823 )
               b(2) = ( -0.5774  1.0000 -0.1823 )
               b(3) = (  0.0000 -0.0000  0.5468 )

     Atoms inside the unit cell:

     Cartesian axes

     site n.  atom      mass           positions (alat units)
        1  Nb     92.9064   tau(    1) = (    0.23350    0.00000   -0.46226  )
        2  Nb     92.9064   tau(    2) = (   -0.11675    0.20221   -0.46226  )
        3  Nb     92.9064   tau(    3) = (   -0.11675   -0.20221   -0.46226  )
        4  Nb     92.9064   tau(    4) = (   -0.23350   -0.00000    0.46226  )
        5  Nb     92.9064   tau(    5) = (    0.11675   -0.20221    0.46226  )
        6  Nb     92.9064   tau(    6) = (    0.11675    0.20221    0.46226  )
        7  Br     79.9040   tau(    7) = (    0.00000    0.00000   -0.74048  )
        8  Br     79.9040   tau(    8) = (    0.87143    0.00000   -0.66496  )
        9  Br     79.9040   tau(    9) = (    0.43031    0.25468   -0.66496  )
       10  Br     79.9040   tau(   10) = (    0.43031   -0.25468   -0.66496  )
       11  Br     79.9040   tau(   11) = (    0.57735   -0.00000   -0.26262  )
       12  Br     79.9040   tau(   12) = (   -0.28804    0.00000   -0.21578  )
       13  Br     79.9040   tau(   13) = (    0.14402   -0.24945   -0.21578  )
       14  Br     79.9040   tau(   14) = (    0.14402    0.24945   -0.21578  )
       15  Br     79.9040   tau(   15) = (    0.28804   -0.00000    0.21578  )
       16  Br     79.9040   tau(   16) = (   -0.14402    0.24945    0.21578  )
       17  Br     79.9040   tau(   17) = (   -0.14402   -0.24945    0.21578  )
       18  Br     79.9040   tau(   18) = (   -0.57735    0.00000    0.26262  )
       19  Br     79.9040   tau(   19) = (   -0.87143   -0.00000    0.66496  )
       20  Br     79.9040   tau(   20) = (   -0.43031   -0.25468    0.66496  )
       21  Br     79.9040   tau(   21) = (   -0.43031    0.25468    0.66496  )
       22  Br     79.9040   tau(   22) = (   -0.00000   -0.00000    0.74048  )

     Computing dynamical matrix for
                    q = (   0.2886751  -0.5000000  -0.1822666 )

      5 Sym.Ops. (with q -> -q+G )

     G cutoff = 1825.4196  (  16158 G-vectors)     FFT grid: (180,180,180)

     number of k points=   136  Marzari-Vanderbilt smearing, width (Ry)=  0.0037

     PseudoPot. # 1 for Nb read from file:
     /scratch-shared/mroesner/Nb3X8_cDFPT/pp/Nb_ONCV_PBE-1.2.upf
     MD5 check sum: 2c750ac0b6910ff4cf0ab5f6c4124a64
     Pseudo is Norm-conserving, Zval = 13.0
     Generated using ONCVPSP code by D. R. Hamann
     Using radial grid of  602 points,  6 beta functions with:
                l(1) =   0
                l(2) =   0
                l(3) =   1
                l(4) =   1
                l(5) =   2
                l(6) =   2

     PseudoPot. # 2 for Br read from file:
     /scratch-shared/mroesner/Nb3X8_cDFPT/pp/Br_ONCV_PBE-1.2.upf
     MD5 check sum: 5b50323dbf1c0ae0ed9e7f1e72c3f86c
     Pseudo is Norm-conserving, Zval =  7.0
     Generated using ONCVPSP code by D. R. Hamann
     Using radial grid of  602 points,  6 beta functions with:
                l(1) =   0
                l(2) =   0
                l(3) =   1
                l(4) =   1
                l(5) =   2
                l(6) =   2

[...]

     Atomic displacements:
     There are   65 irreducible representations

[...]

     Representation    65      1 modes -  To be done

     Alpha used in Ewald sum =   2.8000

     Reading Grimme-D3 Hessian from file: ./out/Nb3Br8.hess

     Number of cells replicated along each semiaxis:    9   9   4
     Number of cells in the supercell:      3249
     Number of atoms in the supercell:     71478
     Hessian allocation dimension:  14152644

     Grimme-D3 Hessian read

     Computing dynamical matrix for q:     0.288675   -0.500000   -0.182267

     Writing Hessian on file dynamical.false.dat

     Dynamical matrix computed

[...]

     Representation #  15 modes #  15  16

[...]

     Representation #  65 mode #  66

     Self-consistent Calculation

[...]

      thresh= 5.585E-10 alpha_mix =  0.700 |ddv_scf|^2 =  5.917E-18

     End of self-consistent calculation

     Convergence has been achieved

     Number of q in the star =    3
     List of q in the star:
          1   0.288675135  -0.500000000  -0.182266641
          2   0.577350269   0.000000000   0.182266641
          3  -0.288675135  -0.500000000   0.182266641

     Diagonalizing the dynamical matrix

     q = (    0.288675135  -0.500000000  -0.182266641 )

     freq (    1) =       1.447367 [THz] =      48.278951 [cm-1]
     freq (    2) =       1.552191 [THz] =      51.775527 [cm-1]
     freq (    3) =       1.635201 [THz] =      54.544425 [cm-1]
     freq (    4) =       1.636035 [THz] =      54.572263 [cm-1]
     freq (    5) =       1.793313 [THz] =      59.818468 [cm-1]
     freq (    6) =       1.849370 [THz] =      61.688341 [cm-1]
     freq (    7) =       2.109341 [THz] =      70.360033 [cm-1]
     freq (    8) =       2.143487 [THz] =      71.499025 [cm-1]
     freq (    9) =       2.219174 [THz] =      74.023675 [cm-1]
     freq (   10) =       2.243623 [THz] =      74.839206 [cm-1]
     freq (   11) =       2.658152 [THz] =      88.666401 [cm-1]
     freq (   12) =       2.667076 [THz] =      88.964083 [cm-1]
     freq (   13) =       2.804036 [THz] =      93.532580 [cm-1]
     freq (   14) =       2.815097 [THz] =      93.901529 [cm-1]
     freq (   15) =       2.880405 [THz] =      96.079961 [cm-1]
     freq (   16) =       2.970087 [THz] =      99.071426 [cm-1]
     freq (   17) =       3.207752 [THz] =     106.999103 [cm-1]
     freq (   18) =       3.253011 [THz] =     108.508774 [cm-1]
     freq (   19) =       3.266325 [THz] =     108.952885 [cm-1]
     freq (   20) =       3.328523 [THz] =     111.027566 [cm-1]
     freq (   21) =       3.369258 [THz] =     112.386352 [cm-1]
     freq (   22) =       3.383781 [THz] =     112.870778 [cm-1]
     freq (   23) =       3.458127 [THz] =     115.350704 [cm-1]
     freq (   24) =       3.583183 [THz] =     119.522109 [cm-1]
     freq (   25) =       3.752376 [THz] =     125.165787 [cm-1]
     freq (   26) =       3.779140 [THz] =     126.058539 [cm-1]
     freq (   27) =       3.894048 [THz] =     129.891472 [cm-1]
     freq (   28) =       3.906399 [THz] =     130.303442 [cm-1]
     freq (   29) =       4.094328 [THz] =     136.572089 [cm-1]
     freq (   30) =       4.105751 [THz] =     136.953097 [cm-1]
     freq (   31) =       4.180362 [THz] =     139.441867 [cm-1]
     freq (   32) =       4.207583 [THz] =     140.349867 [cm-1]
     freq (   33) =       4.271795 [THz] =     142.491734 [cm-1]
     freq (   34) =       4.309870 [THz] =     143.761773 [cm-1]
     freq (   35) =       4.329595 [THz] =     144.419749 [cm-1]
     freq (   36) =       4.394912 [THz] =     146.598493 [cm-1]
     freq (   37) =       4.549171 [THz] =     151.744013 [cm-1]
     freq (   38) =       4.566575 [THz] =     152.324547 [cm-1]
     freq (   39) =       4.590919 [THz] =     153.136572 [cm-1]
     freq (   40) =       4.625504 [THz] =     154.290212 [cm-1]
     freq (   41) =       4.702425 [THz] =     156.856026 [cm-1]
     freq (   42) =       4.761619 [THz] =     158.830521 [cm-1]
     freq (   43) =       5.113692 [THz] =     170.574412 [cm-1]
     freq (   44) =       5.123201 [THz] =     170.891599 [cm-1]
     freq (   45) =       5.133344 [THz] =     171.229935 [cm-1]
     freq (   46) =       5.137909 [THz] =     171.382190 [cm-1]
     freq (   47) =       5.164985 [THz] =     172.285350 [cm-1]
     freq (   48) =       5.850527 [THz] =     195.152576 [cm-1]
     freq (   49) =       5.947921 [THz] =     198.401283 [cm-1]
     freq (   50) =       5.950372 [THz] =     198.483054 [cm-1]
     freq (   51) =       6.449030 [THz] =     215.116478 [cm-1]
     freq (   52) =       6.462074 [THz] =     215.551571 [cm-1]
     freq (   53) =       6.695940 [THz] =     223.352515 [cm-1]
     freq (   54) =       6.719164 [THz] =     224.127178 [cm-1]
     freq (   55) =       7.149575 [THz] =     238.484150 [cm-1]
     freq (   56) =       7.219235 [THz] =     240.807764 [cm-1]
     freq (   57) =       7.471269 [THz] =     249.214701 [cm-1]
     freq (   58) =       7.623513 [THz] =     254.293021 [cm-1]
     freq (   59) =       7.695523 [THz] =     256.695030 [cm-1]
     freq (   60) =       7.865994 [THz] =     262.381304 [cm-1]
     freq (   61) =       8.008186 [THz] =     267.124338 [cm-1]
     freq (   62) =       8.059631 [THz] =     268.840338 [cm-1]
     freq (   63) =       8.347490 [THz] =     278.442279 [cm-1]
     freq (   64) =       8.363050 [THz] =     278.961332 [cm-1]
     freq (   65) =       8.546014 [THz] =     285.064329 [cm-1]
     freq (   66) =       8.693596 [THz] =     289.987164 [cm-1]

     Mode symmetry, C_2h (2/m)  point group:

     freq (   1-   1) =         48.3  [cm-1]   --> B_u
     freq (   2-   2) =         51.8  [cm-1]   --> A_g
     freq (   3-   3) =         54.5  [cm-1]   --> B_g
     freq (   4-   4) =         54.6  [cm-1]   --> A_u
     freq (   5-   5) =         59.8  [cm-1]   --> B_u
     freq (   6-   6) =         61.7  [cm-1]   --> A_g
     freq (   7-   7) =         70.4  [cm-1]   --> A_u
     freq (   8-   8) =         71.5  [cm-1]   --> B_g
     freq (   9-   9) =         74.0  [cm-1]   --> A_u
     freq (  10-  10) =         74.8  [cm-1]   --> B_g
     freq (  11-  11) =         88.7  [cm-1]   --> B_u
     freq (  12-  12) =         89.0  [cm-1]   --> A_g
     freq (  13-  13) =         93.5  [cm-1]   --> B_g
     freq (  14-  14) =         93.9  [cm-1]   --> B_u
     freq (  15-  15) =         96.1  [cm-1]   --> A_g
     freq (  16-  16) =         99.1  [cm-1]   --> A_u
     freq (  17-  17) =        107.0  [cm-1]   --> A_g
     freq (  18-  18) =        108.5  [cm-1]   --> B_u
     freq (  19-  19) =        109.0  [cm-1]   --> B_g
     freq (  20-  20) =        111.0  [cm-1]   --> B_u
     freq (  21-  21) =        112.4  [cm-1]   --> A_u
     freq (  22-  22) =        112.9  [cm-1]   --> A_g
     freq (  23-  23) =        115.4  [cm-1]   --> B_u
     freq (  24-  24) =        119.5  [cm-1]   --> A_g
     freq (  25-  25) =        125.2  [cm-1]   --> B_g
     freq (  26-  26) =        126.1  [cm-1]   --> A_u
     freq (  27-  27) =        129.9  [cm-1]   --> A_g
     freq (  28-  28) =        130.3  [cm-1]   --> B_u
     freq (  29-  29) =        136.6  [cm-1]   --> B_g
     freq (  30-  30) =        137.0  [cm-1]   --> A_u
     freq (  31-  31) =        139.4  [cm-1]   --> B_u
     freq (  32-  32) =        140.3  [cm-1]   --> A_g
     freq (  33-  33) =        142.5  [cm-1]   --> B_g
     freq (  34-  34) =        143.8  [cm-1]   --> A_g
     freq (  35-  35) =        144.4  [cm-1]   --> B_u
     freq (  36-  36) =        146.6  [cm-1]   --> A_u
     freq (  37-  37) =        151.7  [cm-1]   --> B_g
     freq (  38-  38) =        152.3  [cm-1]   --> B_u
     freq (  39-  39) =        153.1  [cm-1]   --> A_u
     freq (  40-  40) =        154.3  [cm-1]   --> A_g
     freq (  41-  41) =        156.9  [cm-1]   --> B_u
     freq (  42-  42) =        158.8  [cm-1]   --> A_g
     freq (  43-  43) =        170.6  [cm-1]   --> B_u
     freq (  44-  44) =        170.9  [cm-1]   --> A_u
     freq (  45-  45) =        171.2  [cm-1]   --> B_g
     freq (  46-  46) =        171.4  [cm-1]   --> A_g
     freq (  47-  47) =        172.3  [cm-1]   --> B_u
     freq (  48-  48) =        195.2  [cm-1]   --> A_g
     freq (  49-  49) =        198.4  [cm-1]   --> B_g
     freq (  50-  50) =        198.5  [cm-1]   --> A_u
     freq (  51-  51) =        215.1  [cm-1]   --> A_g
     freq (  52-  52) =        215.6  [cm-1]   --> B_u
     freq (  53-  53) =        223.4  [cm-1]   --> B_g
     freq (  54-  54) =        224.1  [cm-1]   --> A_u
     freq (  55-  55) =        238.5  [cm-1]   --> B_g
     freq (  56-  56) =        240.8  [cm-1]   --> A_u
     freq (  57-  57) =        249.2  [cm-1]   --> B_u
     freq (  58-  58) =        254.3  [cm-1]   --> A_g
     freq (  59-  59) =        256.7  [cm-1]   --> B_u
     freq (  60-  60) =        262.4  [cm-1]   --> A_g
     freq (  61-  61) =        267.1  [cm-1]   --> B_g
     freq (  62-  62) =        268.8  [cm-1]   --> A_u
     freq (  63-  63) =        278.4  [cm-1]   --> A_g
     freq (  64-  64) =        279.0  [cm-1]   --> B_u
     freq (  65-  65) =        285.1  [cm-1]   --> B_u
     freq (  66-  66) =        290.0  [cm-1]   --> A_g

     General routines

     Parallel routines

     INITIALIZATION:

     DYNAMICAL MATRIX:

                                        0.00s GPU  (   18315 calls)

                                        0.00s GPU  (    1188 calls)

      General routines

      Additional routines
                                        0.00s GPU  ( 1085939 calls)
                                        0.00s GPU  ( 1085939 calls)

   This run was terminated on:  22:21:46   9Jul2025

   JOB DONE.