     Program PWSCF v.7.3.1 starts on  7May2025 at 12:18:40

     Waiting for input...
     Reading input from standard input
Warning: card &CELL ignored
Warning: card / ignored
Warning: card &FCP ignored
Warning: card / ignored
Warning: card &RISM ignored
Warning: card / ignored

     Current dimensions of program PWSCF are:
     Max number of different atomic species (ntypx) = 10
     Max number of k-points (npk) =  40000
     Max angular momentum in pseudopotentials (lmaxx) =  4

     IMPORTANT: XC functional enforced from input :
     Exchange-correlation= PBE
                           (   1   4   3   4   0   0   0)
     Any further DFT definition will be discarded
     Please, verify this is what you really want

     Message from routine setup:
     using ibrav=0 with symmetry is DISCOURAGED, use correct ibrav instead
     Message from routine setup:
     Dynamics, you should have no symmetries

     K-points division:     npool     =      16
     R & G space division:  proc/nbgrp/npool/nimage =      24
     Subspace diagonalization in iterative solution of the eigenvalue problem:
     a serial algorithm will be used

     Message from routine divide_et_impera:
     suboptimal parallelization: some nodes have no k-points

     Using Slab Decomposition

     bravais-lattice index     =            0
     lattice parameter (alat)  =      11.1557  a.u.
     unit-cell volume          =    4949.5834 (a.u.)^3
     number of atoms/cell      =           22
     number of atomic types    =            2
     number of electrons       =       190.00
     number of Kohn-Sham states=          114
     kinetic-energy cutoff     =     100.0000  Ry
     charge density cutoff     =     400.0000  Ry
     scf convergence threshold =      1.0E-12
     mixing beta               =       0.7000
     number of iterations used =            8  plain     mixing
     energy convergence thresh.=      1.0E-04
     force convergence thresh. =      1.0E-06
     Exchange-correlation= PBE
                           (   1   4   3   4   0   0   0)
     nstep                     =           50

     celldm(1)=  11.155732  celldm(2)=   0.000000  celldm(3)=   0.000000
     celldm(4)=   0.000000  celldm(5)=   0.000000  celldm(6)=   0.000000

     crystal axes: (cart. coord. in units of alat)
               a(1) = (   0.866025   0.500000   0.000000 )
               a(2) = (  -0.866025   0.500000   0.000000 )
               a(3) = (   0.000000   0.000000   4.116649 )

     reciprocal axes: (cart. coord. in units 2 pi/alat)
               b(1) = (  0.577350  1.000000 -0.000000 )
               b(2) = ( -0.577350  1.000000  0.000000 )
               b(3) = (  0.000000 -0.000000  0.242916 )

     PseudoPot. # 1 for Nb read from file:
     /scratch-shared/mroesner/Nb3X8_cDFPT/pp/Nb_ONCV_PBE-1.2.upf
     MD5 check sum: 2c750ac0b6910ff4cf0ab5f6c4124a64
     Pseudo is Norm-conserving, Zval = 13.0
     Generated using ONCVPSP code by D. R. Hamann
     Using radial grid of  602 points,  6 beta functions with:
                l(1) =   0
                l(2) =   0
                l(3) =   1
                l(4) =   1
                l(5) =   2
                l(6) =   2

     PseudoPot. # 2 for F  read from file:
     /scratch-shared/mroesner/Nb3X8_cDFPT/pp/F_ONCV_PBE-1.2.upf
     MD5 check sum: 1d8275f47d602dd53cad6bcdc0eda7dc
     Pseudo is Norm-conserving, Zval =  7.0
     Generated using ONCVPSP code by D. R. Hamann
     Using radial grid of  602 points,  4 beta functions with:
                l(1) =   0
                l(2) =   0
                l(3) =   1
                l(4) =   1

     atomic species   valence    mass     pseudopotential
     Nb               13.00    92.90637     Nb( 1.00)
     F                 7.00    18.99840     F ( 1.00)

     12 Sym. Ops., with inversion, found

                                    s                        frac. trans.

      isym =  1     identity

 cryst.   s( 1) = (     1          0          0      )
                  (     0          1          0      )
                  (     0          0          1      )

 cart.    s( 1) = (  1.0000000 -0.0000000  0.0000000 )
                  (  0.0000000  1.0000000  0.0000000 )
                  (  0.0000000  0.0000000  1.0000000 )

      isym =  2     180 deg rotation - cart. axis [0,1,0]

[...]

      isym =  3     120 deg rotation - cryst. axis [0,0,1]

[...]

      isym =  6     180 deg rotation - cryst. axis [2,1,0]

[...]

      isym =  7     inversion

[...]

      isym =  8     inv. 180 deg rotation - cart. axis [0,1,0]

[...]

      isym =  9     inv. 120 deg rotation - cryst. axis [0,0,1]

 cryst.   s( 9) = (     0         -1          0      )
                  (     1          1          0      )
                  (     0          0         -1      )

 cart.    s( 9) = (  0.5000000  0.8660254  0.0000000 )
                  ( -0.8660254  0.5000000  0.0000000 )
                  (  0.0000000  0.0000000 -1.0000000 )

[...]

 cryst.   s(10) = (     1          1          0      )
                  (    -1          0          0      )
                  (     0          0         -1      )

 cart.    s(10) = (  0.5000000 -0.8660254  0.0000000 )
                  (  0.8660254  0.5000000  0.0000000 )
                  (  0.0000000  0.0000000 -1.0000000 )

[...]

      isym = 12     inv. 180 deg rotation - cryst. axis [2,1,0]

 cryst.   s(12) = (    -1          0          0      )
                  (     1          1          0      )
                  (     0          0          1      )

 cart.    s(12) = ( -0.5000000 -0.8660254  0.0000000 )
                  ( -0.8660254  0.5000000  0.0000000 )
                  (  0.0000000  0.0000000  1.0000000 )

   Cartesian axes

     site n.     atom                  positions (alat units)
         1        Nb     tau(   1) = (   0.2520974   0.0000000  -0.4120060  )
         2        Nb     tau(   2) = (  -0.1260487   0.2183227  -0.4120060  )
         3        Nb     tau(   3) = (  -0.1260487  -0.2183227  -0.4120060  )
         4        Nb     tau(   4) = (  -0.2520974  -0.0000000   0.4120060  )
         5        Nb     tau(   5) = (   0.1260487  -0.2183227   0.4120060  )
         6        Nb     tau(   6) = (   0.1260487   0.2183227   0.4120060  )
         7        F      tau(   7) = (   0.0000000   0.0000000  -0.6758146  )
         8        F      tau(   8) = (   0.8568626   0.0000000  -0.5966453  )
         9        F      tau(   9) = (   0.4375941   0.2420648  -0.5966453  )
        10        F      tau(  10) = (   0.4375941  -0.2420648  -0.5966453  )
        11        F      tau(  11) = (   0.5773503  -0.0000000  -0.2213304  )
        12        F      tau(  12) = (  -0.2837036   0.0000000  -0.1872051  )
        13        F      tau(  13) = (   0.1418518  -0.2456946  -0.1872051  )
        14        F      tau(  14) = (   0.1418518   0.2456946  -0.1872051  )
        15        F      tau(  15) = (   0.2837036  -0.0000000   0.1872051  )
        16        F      tau(  16) = (  -0.1418518   0.2456946   0.1872051  )
        17        F      tau(  17) = (  -0.1418518  -0.2456946   0.1872051  )
        18        F      tau(  18) = (  -0.5773503   0.0000000   0.2213304  )
        19        F      tau(  19) = (  -0.8568626  -0.0000000   0.5966453  )
        20        F      tau(  20) = (  -0.4375941  -0.2420648   0.5966453  )
        21        F      tau(  21) = (  -0.4375941   0.2420648   0.5966453  )
        22        F      tau(  22) = (   0.0000000   0.0000000   0.6758146  )

     DFT-D3 Dispersion Correction (no 3-body):
       Reference C6 values for interpolation:

         atom   Coordination number   C6
         F          0.000            19.38
         F          0.998            14.27
         Nb         0.000          2950.50
         Nb         1.954          1161.16
         Nb         2.922           857.79

       Values used:

         atom   Coordination number  R0_AB[au]  C6      C8
         Nb         9.445            3.647    857.79 111659.18
         Nb         9.445            3.647    857.79 111659.18
         Nb         9.445            3.647    857.79 111659.18
         Nb         9.445            3.647    857.79 111659.18
         Nb         9.445            3.647    857.79 111659.18
         Nb         9.445            3.647    857.79 111659.18
         F          2.918            2.173     14.27    244.15
         F          2.020            2.173     14.27    244.15
         F          2.020            2.173     14.27    244.15
         F          2.020            2.173     14.27    244.15
         F          2.858            2.173     14.27    244.15
         F          2.047            2.173     14.27    244.15
         F          2.047            2.173     14.27    244.15
         F          2.047            2.173     14.27    244.15
         F          2.047            2.173     14.27    244.15
         F          2.047            2.173     14.27    244.15
         F          2.047            2.173     14.27    244.15
         F          2.858            2.173     14.27    244.15
         F          2.020            2.173     14.27    244.15
         F          2.020            2.173     14.27    244.15
         F          2.020            2.173     14.27    244.15
         F          2.918            2.173     14.27    244.15

         Molecular C6 ( Ry / a.u.^6 ) =     52655.74

   Crystallographic axes

     site n.     atom                  positions (cryst. coord.)
         1        Nb     tau(   1) = (  0.1455485 -0.1455485 -0.1000829  )
         2        Nb     tau(   2) = (  0.1455485  0.2910970 -0.1000829  )
         3        Nb     tau(   3) = ( -0.2910970 -0.1455485 -0.1000829  )
         4        Nb     tau(   4) = ( -0.1455485  0.1455485  0.1000829  )
         5        Nb     tau(   5) = ( -0.1455485 -0.2910970  0.1000829  )
         6        Nb     tau(   6) = (  0.2910970  0.1455485  0.1000829  )
         7        F      tau(   7) = (  0.0000000  0.0000000 -0.1641662  )
         8        F      tau(   8) = (  0.4947099 -0.4947099 -0.1449347  )
         9        F      tau(   9) = (  0.4947099 -0.0105803 -0.1449347  )
        10        F      tau(  10) = (  0.0105803 -0.4947099 -0.1449347  )
        11        F      tau(  11) = (  0.3333333 -0.3333333 -0.0537647  )
        12        F      tau(  12) = ( -0.1637964  0.1637964 -0.0454751  )
        13        F      tau(  13) = ( -0.1637964 -0.3275927 -0.0454751  )
        14        F      tau(  14) = (  0.3275927  0.1637964 -0.0454751  )
        15        F      tau(  15) = (  0.1637964 -0.1637964  0.0454751  )
        16        F      tau(  16) = (  0.1637964  0.3275927  0.0454751  )
        17        F      tau(  17) = ( -0.3275927 -0.1637964  0.0454751  )
        18        F      tau(  18) = ( -0.3333333  0.3333333  0.0537647  )
        19        F      tau(  19) = ( -0.4947099  0.4947099  0.1449347  )
        20        F      tau(  20) = ( -0.4947099  0.0105803  0.1449347  )
        21        F      tau(  21) = ( -0.0105803  0.4947099  0.1449347  )
        22        F      tau(  22) = (  0.0000000  0.0000000  0.1641662  )

     number of k points=     7  Marzari-Vanderbilt smearing, width (Ry)=  0.0037
[...]
     atom    7 type  2   force =     0.00000000   -0.00000000    1.51008614
     atom    8 type  2   force =    -0.58600390   -0.00000000    0.96413749
     atom    9 type  2   force =     0.29300195   -0.50749426    0.96413749
     atom   10 type  2   force =     0.29300195    0.50749426    0.96413749
     atom   11 type  2   force =    -0.00000000   -0.00000000   -1.08662760
     atom   12 type  2   force =     0.77351244   -0.00000000   -1.18402606
     atom   13 type  2   force =    -0.38675622    0.66988142   -1.18402606
     atom   14 type  2   force =    -0.38675622   -0.66988142   -1.18402606
     atom   15 type  2   force =    -0.77351244    0.00000000    1.18402606
     atom   16 type  2   force =     0.38675622   -0.66988142    1.18402606
     atom   17 type  2   force =     0.38675622    0.66988142    1.18402606
     atom   18 type  2   force =     0.00000000   -0.00000000    1.08662760
     atom   19 type  2   force =     0.58600390    0.00000000   -0.96413749
     atom   20 type  2   force =    -0.29300195    0.50749426   -0.96413749
     atom   21 type  2   force =    -0.29300195   -0.50749426   -0.96413749
     atom   22 type  2   force =    -0.00000000   -0.00000000   -1.51008614
     The ionic contribution  to forces
     atom    1 type  1   force =     7.36826264    0.00000000  -86.06366423
     atom    2 type  1   force =    -3.68413132    6.38110263  -86.06366423
     atom    3 type  1   force =    -3.68413132   -6.38110263  -86.06366423
     atom    4 type  1   force =    -7.36826264   -0.00000000   86.06366423
     atom    5 type  1   force =     3.68413132   -6.38110263   86.06366423
     atom    6 type  1   force =     3.68413132    6.38110263   86.06366423
     atom    7 type  2   force =     0.00000000    0.00000000  -89.49737833
     atom    8 type  2   force =     6.66034174   -0.00000000  -76.68354278
     atom    9 type  2   force =    -3.33017087    5.76802514  -76.68354278
     atom   10 type  2   force =    -3.33017087   -5.76802514  -76.68354278
     atom   11 type  2   force =     0.00000000    0.00000000  -12.02573601
     atom   12 type  2   force =    -9.57122629   -0.00000000   -9.62098914
     atom   13 type  2   force =     4.78561315   -8.28892511   -9.62098914
     atom   14 type  2   force =     4.78561315    8.28892511   -9.62098914
     atom   15 type  2   force =     9.57122629   -0.00000000    9.62098914
     atom   16 type  2   force =    -4.78561315    8.28892511    9.62098914
     atom   17 type  2   force =    -4.78561315   -8.28892511    9.62098914
     atom   18 type  2   force =    -0.00000000   -0.00000000   12.02573601
     atom   19 type  2   force =    -6.66034174    0.00000000   76.68354278
     atom   20 type  2   force =     3.33017087   -5.76802514   76.68354278
     atom   21 type  2   force =     3.33017087    5.76802514   76.68354278
     atom   22 type  2   force =    -0.00000000   -0.00000000   89.49737833
     The local contribution  to forces
     atom    1 type  1   force =    -6.99597904    0.00000000   86.11535394
     atom    2 type  1   force =     3.49798952   -6.05869557   86.11535394
     atom    3 type  1   force =     3.49798952    6.05869557   86.11535394
     atom    4 type  1   force =     6.99597904   -0.00000000  -86.11535394
     atom    5 type  1   force =    -3.49798952    6.05869557  -86.11535394
     atom    6 type  1   force =    -3.49798952   -6.05869557  -86.11535394
     atom    7 type  2   force =    -0.00000000    0.00000000   87.98662184
     atom    8 type  2   force =    -6.07450791    0.00000000   75.71857164
     atom    9 type  2   force =     3.03725396   -5.26067817   75.71857164
     atom   10 type  2   force =     3.03725396    5.26067817   75.71857164
     atom   11 type  2   force =     0.00000000   -0.00000000   13.11169090
     atom   12 type  2   force =     8.79806312   -0.00000000   10.80446131
     atom   13 type  2   force =    -4.39903156    7.61934616   10.80446131
     atom   14 type  2   force =    -4.39903156   -7.61934616   10.80446131
     atom   15 type  2   force =    -8.79806312    0.00000000  -10.80446131
     atom   16 type  2   force =     4.39903156   -7.61934616  -10.80446131
     atom   17 type  2   force =     4.39903156    7.61934616  -10.80446131
     atom   18 type  2   force =    -0.00000000    0.00000000  -13.11169090
     atom   19 type  2   force =     6.07450791   -0.00000000  -75.71857164
     atom   20 type  2   force =    -3.03725396    5.26067817  -75.71857164
     atom   21 type  2   force =    -3.03725396   -5.26067817  -75.71857164
     atom   22 type  2   force =    -0.00000000   -0.00000000  -87.98662184
     The core correction contribution to forces
     atom    1 type  1   force =     0.00000000    0.00000000    0.00000000
     atom    2 type  1   force =     0.00000000    0.00000000    0.00000000
     atom    3 type  1   force =     0.00000000    0.00000000    0.00000000
     atom    4 type  1   force =     0.00000000    0.00000000    0.00000000
     atom    5 type  1   force =     0.00000000    0.00000000    0.00000000
     atom    6 type  1   force =     0.00000000    0.00000000    0.00000000
     atom    7 type  2   force =     0.00000000    0.00000000    0.00000000
     atom    8 type  2   force =     0.00000000    0.00000000    0.00000000
     atom    9 type  2   force =     0.00000000    0.00000000    0.00000000
     atom   10 type  2   force =     0.00000000    0.00000000    0.00000000
     atom   11 type  2   force =     0.00000000    0.00000000    0.00000000
     atom   12 type  2   force =     0.00000000    0.00000000    0.00000000
     atom   13 type  2   force =     0.00000000    0.00000000    0.00000000
     atom   14 type  2   force =     0.00000000    0.00000000    0.00000000
     atom   15 type  2   force =     0.00000000    0.00000000    0.00000000
     atom   16 type  2   force =     0.00000000    0.00000000    0.00000000
     atom   17 type  2   force =     0.00000000    0.00000000    0.00000000
     atom   18 type  2   force =     0.00000000    0.00000000    0.00000000
     atom   19 type  2   force =     0.00000000    0.00000000    0.00000000
     atom   20 type  2   force =     0.00000000    0.00000000    0.00000000
     atom   21 type  2   force =     0.00000000    0.00000000    0.00000000
     atom   22 type  2   force =     0.00000000    0.00000000    0.00000000
     The Hubbard contrib.    to forces
     atom    1 type  1   force =     0.00000000    0.00000000    0.00000000
     atom    2 type  1   force =     0.00000000    0.00000000    0.00000000
     atom    3 type  1   force =     0.00000000    0.00000000    0.00000000
     atom    4 type  1   force =     0.00000000    0.00000000    0.00000000
     atom    5 type  1   force =     0.00000000    0.00000000    0.00000000
     atom    6 type  1   force =     0.00000000    0.00000000    0.00000000
     atom    7 type  2   force =     0.00000000    0.00000000    0.00000000
     atom    8 type  2   force =     0.00000000    0.00000000    0.00000000
     atom    9 type  2   force =     0.00000000    0.00000000    0.00000000
     atom   10 type  2   force =     0.00000000    0.00000000    0.00000000
     atom   11 type  2   force =     0.00000000    0.00000000    0.00000000
     atom   12 type  2   force =     0.00000000    0.00000000    0.00000000
     atom   13 type  2   force =     0.00000000    0.00000000    0.00000000
     atom   14 type  2   force =     0.00000000    0.00000000    0.00000000
     atom   15 type  2   force =     0.00000000    0.00000000    0.00000000
     atom   16 type  2   force =     0.00000000    0.00000000    0.00000000
     atom   17 type  2   force =     0.00000000    0.00000000    0.00000000
     atom   18 type  2   force =     0.00000000    0.00000000    0.00000000
     atom   19 type  2   force =     0.00000000    0.00000000    0.00000000
     atom   20 type  2   force =     0.00000000    0.00000000    0.00000000
     atom   21 type  2   force =     0.00000000    0.00000000    0.00000000
     atom   22 type  2   force =     0.00000000    0.00000000    0.00000000
     The SCF correction term to forces
     atom    1 type  1   force =     0.00000031   -0.00000000   -0.00000049
     atom    2 type  1   force =    -0.00000015    0.00000027   -0.00000049
     atom    3 type  1   force =    -0.00000015   -0.00000027   -0.00000049
     atom    4 type  1   force =    -0.00000031    0.00000000    0.00000049
     atom    5 type  1   force =     0.00000015   -0.00000027    0.00000049
     atom    6 type  1   force =     0.00000015    0.00000027    0.00000049
     atom    7 type  2   force =    -0.00000000   -0.00000000   -0.00000060
     atom    8 type  2   force =     0.00000016    0.00000000   -0.00000057
     atom    9 type  2   force =    -0.00000008    0.00000014   -0.00000057
     atom   10 type  2   force =    -0.00000008   -0.00000014   -0.00000057
     atom   11 type  2   force =     0.00000000    0.00000000    0.00000024
     atom   12 type  2   force =    -0.00000014    0.00000000    0.00000020
     atom   13 type  2   force =     0.00000007   -0.00000013    0.00000020
     atom   14 type  2   force =     0.00000007    0.00000013    0.00000020
     atom   15 type  2   force =     0.00000014   -0.00000000   -0.00000020
     atom   16 type  2   force =    -0.00000007    0.00000013   -0.00000020
     atom   17 type  2   force =    -0.00000007   -0.00000013   -0.00000020
     atom   18 type  2   force =     0.00000000   -0.00000000   -0.00000024
     atom   19 type  2   force =    -0.00000016    0.00000000    0.00000057
     atom   20 type  2   force =     0.00000008   -0.00000014    0.00000057
     atom   21 type  2   force =     0.00000008    0.00000014    0.00000057
     atom   22 type  2   force =     0.00000000    0.00000000    0.00000060

     DFT-D3 dispersion contribution to forces:
     atom    1 type  1   force =    -0.00102893    0.00000000    0.00362905
     atom    2 type  1   force =     0.00051446   -0.00089108    0.00362905
     atom    3 type  1   force =     0.00051446    0.00089108    0.00362905
     atom    4 type  1   force =     0.00102893    0.00000000   -0.00362905
     atom    5 type  1   force =    -0.00051446    0.00089108   -0.00362905
     atom    6 type  1   force =    -0.00051446   -0.00089108   -0.00362905
     atom    7 type  2   force =    -0.00000000   -0.00000000    0.00067020
     atom    8 type  2   force =     0.00017065    0.00000000    0.00083444
     atom    9 type  2   force =    -0.00008532    0.00014778    0.00083444
     atom   10 type  2   force =    -0.00008532   -0.00014778    0.00083444
     atom   11 type  2   force =    -0.00000000    0.00000000    0.00067206
     atom   12 type  2   force =    -0.00034867   -0.00000000    0.00055356
     atom   13 type  2   force =     0.00017434   -0.00030196    0.00055356
     atom   14 type  2   force =     0.00017434    0.00030196    0.00055356
     atom   15 type  2   force =     0.00034867   -0.00000000   -0.00055356
     atom   16 type  2   force =    -0.00017434    0.00030196   -0.00055356
     atom   17 type  2   force =    -0.00017434   -0.00030196   -0.00055356
     atom   18 type  2   force =     0.00000000    0.00000000   -0.00067206
     atom   19 type  2   force =    -0.00017065    0.00000000   -0.00083444
     atom   20 type  2   force =     0.00008532   -0.00014778   -0.00083444
     atom   21 type  2   force =     0.00008532    0.00014778   -0.00083444
     atom   22 type  2   force =     0.00000000   -0.00000000   -0.00067020

     Total force =     0.000003     Total SCF correction =     0.000002

     DFT-D3 dispersion Force =     0.009700
     SCF correction compared to forces is large: reduce conv_thr to get better values

     Computing stress (Cartesian axis) and pressure

          total   stress  (Ry/bohr**3)                   (kbar)     P=        4.02
   0.00004142   0.00000000   0.00000000            6.09        0.00        0.00
   0.00000000   0.00004142  -0.00000000            0.00        6.09       -0.00
   0.00000000  -0.00000000  -0.00000085            0.00       -0.00       -0.12

     kinetic stress (kbar)  14391.33     -0.00      0.00
                               -0.00  14391.33      0.00
                               -0.00     -0.00  14368.13

     local   stress (kbar)-370737.45      0.00     -0.00
                                0.00-370737.45     -0.00
                               -0.00     -0.00 357920.06

     nonloc. stress (kbar)    708.80     -0.00      0.00
                               -0.00    708.80     -0.00
                                0.00      0.00    725.06

     hartree stress (kbar) 183810.37     -0.00     -0.00
                               -0.00 183810.37     -0.00
                               -0.00     -0.00-176126.09

     exc-cor stress (kbar)  -2165.27     -0.00     -0.00
                               -0.00  -2165.27      0.00
                               -0.00      0.00  -2170.35

     corecor stress (kbar)      0.00      0.00      0.00
                                0.00      0.00      0.00
                                0.00      0.00      0.00

     ewald   stress (kbar) 174005.05      0.00      0.00
                                0.00 174005.05     -0.00
                                0.00     -0.00-194712.16

     hubbard stress (kbar)      0.00      0.00      0.00
                                0.00      0.00      0.00
                                0.00      0.00      0.00

     DFT-D   stress (kbar)     -6.75      0.00      0.00
                                0.00     -6.75     -0.00
                                0.00     -0.00     -4.77

     XDM     stress (kbar)      0.00      0.00      0.00
                                0.00      0.00      0.00
                                0.00      0.00      0.00

     dft-nl  stress (kbar)      0.00      0.00      0.00
                                0.00      0.00      0.00
                                0.00      0.00      0.00

     TS-vdW  stress (kbar)      0.00      0.00      0.00
                                0.00      0.00      0.00
                                0.00      0.00      0.00

     MDB     stress (kbar)      0.00      0.00      0.00
                                0.00      0.00      0.00
                                0.00      0.00      0.00

     3D-RISM stress (kbar)      0.00      0.00      0.00
                                0.00      0.00      0.00
                                0.00      0.00      0.00

     Damped Dynamics: convergence achieved in  36 steps

     End of damped dynamics calculation

     Final energy =   -1450.8989289995 Ry

Begin final coordinates
     new unit-cell volume =   4949.58336 a.u.^3 (   733.45258 Ang^3 )
     density =      1.95024 g/cm^3

CELL_PARAMETERS (angstrom)
   5.112458790   2.951679459   0.000000000
  -5.112458790   2.951679459   0.000000000
   0.000000000   0.000000000  24.302056867

ATOMIC_POSITIONS (crystal)
Nb               0.1456228793       -0.1456228793       -0.1038898805
Nb               0.1456228793        0.2912457585       -0.1038898805
Nb              -0.2912457585       -0.1456228793       -0.1038898805
Nb              -0.1456228793        0.1456228793        0.1038898805
Nb              -0.1456228793       -0.2912457585        0.1038898805
Nb               0.2912457585        0.1456228793        0.1038898805
F                0.0000000000       -0.0000000000       -0.1685835876
F                0.4930599107       -0.4930599107       -0.1492724126
F                0.4930599107       -0.0138801786       -0.1492724126
F                0.0138801786       -0.4930599107       -0.1492724126
F                0.3333333333       -0.3333333333       -0.0572150677
F               -0.1618398854        0.1618398854       -0.0486575666
F               -0.1618398854       -0.3236797708       -0.0486575666
F                0.3236797708        0.1618398854       -0.0486575666
F                0.1618398854       -0.1618398854        0.0486575666
F                0.1618398854        0.3236797708        0.0486575666
F               -0.3236797708       -0.1618398854        0.0486575666
F               -0.3333333333        0.3333333333        0.0572150677
F               -0.4930599107        0.4930599107        0.1492724126
F               -0.4930599107        0.0138801786        0.1492724126
F               -0.0138801786        0.4930599107        0.1492724126
F                0.0000000000       -0.0000000000        0.1685835876
End final coordinates

     Writing all to output data dir ./out/Nb3F8.save/ :
     XML data file, charge density, pseudopotentials, collected wavefunctions

     General routines

     Parallel routines

   This run was terminated on:  12:32:27   7May2025

   JOB DONE.