     Program PHONON v.7.3.1 starts on  7May2025 at 22:46:34

     Waiting for input...
     Reading input from standard input
     Run is not recoverable starting from scratch

     Reading xml data from directory:

     ./out/Nb3F8.save/

     K-points division:     npool     =      12
     R & G space division:  proc/nbgrp/npool/nimage =      32
     Subspace diagonalization in iterative solution of the eigenvalue problem:
     a serial algorithm will be used

     IMPORTANT: XC functional enforced from input :
     Exchange-correlation= PBE
                           (   1   4   3   4   0   0   0)
     Any further DFT definition will be discarded
     Please, verify this is what you really want

     Using Slab Decomposition

     Message from routine divide_et_impera:
     suboptimal parallelization: some nodes have no k-points
     Reading collected, re-writing distributed wavefunctions in ./out/

     Dynamical matrices for ( 2, 2, 1)  uniform grid of q-points
     (   2 q-points):
       N         xq(1)         xq(2)         xq(3)
       1   0.000000000   0.000000000   0.000000000
       2   0.288675135  -0.500000000   0.000000000

     Number and degeneracy of irreps per q-point
       N         xq(1)         xq(2)         xq(3)   N irreps
       1   0.000000000   0.000000000   0.000000000      22
        1   1   1   1   1   1   1   1   1   1   1   2   2   2   2   2   2   2
   2   2   2   2
       2   0.288675135  -0.500000000   0.000000000      33
     No degeneracy

     Saving dvscf to file. Distribute only q points, not irreducible representations.

     Calculation of q =    0.0000000   0.0000000   0.0000000

     Nb3F8

     bravais-lattice index     =            0
     lattice parameter (alat)  =      11.1557  a.u.
     unit-cell volume          =    4949.5834 (a.u.)^3
     number of atoms/cell      =           11
     number of atomic types    =            2
     kinetic-energy cut-off    =     100.0000  Ry
     charge density cut-off    =     400.0000  Ry
     convergence threshold     =      1.0E-16
     beta                      =       0.7000
     number of iterations used =            4
     Exchange-correlation= PBE
                           (   1   4   3   4   0   0   0)

     celldm(1)=   11.15573  celldm(2)=    0.00000  celldm(3)=    0.00000
     celldm(4)=    0.00000  celldm(5)=    0.00000  celldm(6)=    0.00000

     crystal axes: (cart. coord. in units of alat)
               a(1) = (  0.8660  0.5000  0.0000 )
               a(2) = ( -0.8660  0.5000  0.0000 )
               a(3) = (  0.0000  0.0000  4.1166 )

     reciprocal axes: (cart. coord. in units 2 pi/alat)
               b(1) = (  0.5774  1.0000 -0.0000 )
               b(2) = ( -0.5774  1.0000  0.0000 )
               b(3) = (  0.0000 -0.0000  0.2429 )

     Atoms inside the unit cell:

     Cartesian axes

     site n.  atom      mass           positions (alat units)
        1  Nb     92.9064   tau(    1) = (    0.25205    0.00000   -0.42844  )
        2  Nb     92.9064   tau(    2) = (   -0.12602    0.21828   -0.42844  )
        3  Nb     92.9064   tau(    3) = (   -0.12602   -0.21828   -0.42844  )
        4  F      18.9984   tau(    4) = (    0.00000    0.00000   -0.69498  )
        5  F      18.9984   tau(    5) = (    0.85387    0.00000   -0.61518  )
        6  F      18.9984   tau(    6) = (    0.43909    0.23947   -0.61518  )
        7  F      18.9984   tau(    7) = (    0.43909   -0.23947   -0.61518  )
        8  F      18.9984   tau(    8) = (    0.57735   -0.00000   -0.23496  )
        9  F      18.9984   tau(    9) = (   -0.27723   -0.00000   -0.19874  )
       10  F      18.9984   tau(   10) = (    0.13862   -0.24009   -0.19874  )
       11  F      18.9984   tau(   11) = (    0.13862    0.24009   -0.19874  )

     Computing dynamical matrix for
                    q = (   0.0000000   0.0000000   0.0000000 )

      7 Sym.Ops. (with q -> -q+G )

     G cutoff = 1260.9456  (  20905 G-vectors)     FFT grid: ( 72, 72,300)

     number of k points=     7  Gaussian smearing, width (Ry)=  0.0037

     PseudoPot. # 1 for Nb read from file:
     /scratch-shared/mroesner/Nb3X8_cDFPT/pp/Nb_ONCV_PBE-1.2.upf
     MD5 check sum: 2c750ac0b6910ff4cf0ab5f6c4124a64
     Pseudo is Norm-conserving, Zval = 13.0
     Generated using ONCVPSP code by D. R. Hamann
     Using radial grid of  602 points,  6 beta functions with:
                l(1) =   0
                l(2) =   0
                l(3) =   1
                l(4) =   1
                l(5) =   2
                l(6) =   2

     PseudoPot. # 2 for F  read from file:
     /scratch-shared/mroesner/Nb3X8_cDFPT/pp/F_ONCV_PBE-1.2.upf
     MD5 check sum: 1d8275f47d602dd53cad6bcdc0eda7dc
     Pseudo is Norm-conserving, Zval =  7.0
     Generated using ONCVPSP code by D. R. Hamann
     Using radial grid of  602 points,  4 beta functions with:
                l(1) =   0
                l(2) =   0
                l(3) =   1
                l(4) =   1

     Mode symmetry, C_3v (3m)   point group:

     Atomic displacements:
     There are   22 irreducible representations

     Representation     1      1 modes -  To be done

[...]

     Alpha used in Ewald sum =   2.8000

     Reading Grimme-D3 Hessian from file: ./out/Nb3F8.hess

     Number of cells replicated along each semiaxis:   10  10   3
     Number of cells in the supercell:      3087
     Number of atoms in the supercell:     33957
     Hessian allocation dimension:   3361743

     Grimme-D3 Hessian read

     Computing dynamical matrix for q:     0.000000    0.000000    0.000000

     Writing Hessian on file dynamical.false.dat

     Dynamical matrix computed

     Representation #   1 mode #   1

     Self-consistent Calculation

     Pert. #  1: Fermi energy shift (Ry) =    -2.4312E-01     0.0000E+00

      thresh= 1.000E-02 alpha_mix =  0.700 |ddv_scf|^2 =  7.950E-08

[...]

     End of self-consistent calculation

     Convergence has been achieved

[...]

     Representation #  12 modes #  12  13

[...]

     Representation #  22 modes #  32  33

[...]

     Pert. #  1: Fermi energy shift (Ry) =     4.5175E-20    -2.9894E-44
     Pert. #  2: Fermi energy shift (Ry) =     2.2588E-20    -3.7368E-45

[...]

     Number of q in the star =    1
     List of q in the star:
          1   0.000000000   0.000000000   0.000000000

     Diagonalizing the dynamical matrix

     q = (    0.000000000   0.000000000   0.000000000 )

     freq (    1) =      -0.492220 [THz] =     -16.418693 [cm-1]
     freq (    2) =       0.434070 [THz] =      14.479001 [cm-1]
     freq (    3) =       0.434070 [THz] =      14.479001 [cm-1]
     freq (    4) =       3.030955 [THz] =     101.101765 [cm-1]
     freq (    5) =       3.415416 [THz] =     113.926006 [cm-1]
     freq (    6) =       3.415416 [THz] =     113.926006 [cm-1]
     freq (    7) =       4.423012 [THz] =     147.535797 [cm-1]
     freq (    8) =       4.423012 [THz] =     147.535797 [cm-1]
     freq (    9) =       6.231336 [THz] =     207.855000 [cm-1]
     freq (   10) =       6.231336 [THz] =     207.855000 [cm-1]
     freq (   11) =       6.289517 [THz] =     209.795704 [cm-1]
     freq (   12) =       6.923679 [THz] =     230.949058 [cm-1]
     freq (   13) =       8.156601 [THz] =     272.074935 [cm-1]
     freq (   14) =       8.156601 [THz] =     272.074935 [cm-1]
     freq (   15) =       8.859324 [THz] =     295.515248 [cm-1]
     freq (   16) =       8.859324 [THz] =     295.515248 [cm-1]
     freq (   17) =       9.348652 [THz] =     311.837456 [cm-1]
     freq (   18) =       9.348652 [THz] =     311.837456 [cm-1]
     freq (   19) =       9.526525 [THz] =     317.770677 [cm-1]
     freq (   20) =       9.791886 [THz] =     326.622172 [cm-1]
     freq (   21) =      10.252236 [THz] =     341.977787 [cm-1]
     freq (   22) =      10.507448 [THz] =     350.490728 [cm-1]
     freq (   23) =      10.507448 [THz] =     350.490728 [cm-1]
     freq (   24) =      10.659386 [THz] =     355.558829 [cm-1]
     freq (   25) =      10.659386 [THz] =     355.558829 [cm-1]
     freq (   26) =      11.229619 [THz] =     374.579758 [cm-1]
     freq (   27) =      11.880171 [THz] =     396.279848 [cm-1]
     freq (   28) =      11.880171 [THz] =     396.279848 [cm-1]
     freq (   29) =      13.365690 [THz] =     445.831440 [cm-1]
     freq (   30) =      15.048090 [THz] =     501.950259 [cm-1]
     freq (   31) =      15.956324 [THz] =     532.245694 [cm-1]
     freq (   32) =      15.956324 [THz] =     532.245694 [cm-1]
     freq (   33) =      17.926783 [THz] =     597.973116 [cm-1]

     Mode symmetry, C_3v (3m)   point group:

     freq (   1-   1) =        -16.4  [cm-1]   --> A_1  L_1        I+R
     freq (   2-   3) =         14.5  [cm-1]   --> E    L_3        I+R
     freq (   4-   4) =        101.1  [cm-1]   --> A_2  L_2
     freq (   5-   6) =        113.9  [cm-1]   --> E    L_3        I+R
     freq (   7-   8) =        147.5  [cm-1]   --> E    L_3        I+R
     freq (   9-  10) =        207.9  [cm-1]   --> E    L_3        I+R
     freq (  11-  11) =        209.8  [cm-1]   --> A_1  L_1        I+R
     freq (  12-  12) =        230.9  [cm-1]   --> A_1  L_1        I+R
     freq (  13-  14) =        272.1  [cm-1]   --> E    L_3        I+R
     freq (  15-  16) =        295.5  [cm-1]   --> E    L_3        I+R
     freq (  17-  18) =        311.8  [cm-1]   --> E    L_3        I+R
     freq (  19-  19) =        317.8  [cm-1]   --> A_1  L_1        I+R
     freq (  20-  20) =        326.6  [cm-1]   --> A_2  L_2
     freq (  21-  21) =        342.0  [cm-1]   --> A_2  L_2
     freq (  22-  23) =        350.5  [cm-1]   --> E    L_3        I+R
     freq (  24-  25) =        355.6  [cm-1]   --> E    L_3        I+R
     freq (  26-  26) =        374.6  [cm-1]   --> A_1  L_1        I+R
     freq (  27-  28) =        396.3  [cm-1]   --> E    L_3        I+R
     freq (  29-  29) =        445.8  [cm-1]   --> A_1  L_1        I+R
     freq (  30-  30) =        502.0  [cm-1]   --> A_1  L_1        I+R
     freq (  31-  32) =        532.2  [cm-1]   --> E    L_3        I+R
     freq (  33-  33) =        598.0  [cm-1]   --> A_1  L_1        I+R

     Calculation of q =    0.2886751  -0.5000000   0.0000000

     Using Slab Decomposition

     Title:
     Nb3F8

     bravais-lattice index     =            0
     lattice parameter (alat)  =      11.1557  a.u.
     unit-cell volume          =    4949.5834 (a.u.)^3
     number of atoms/cell      =           11
     number of atomic types    =            2
     number of electrons       =        95.00
     number of Kohn-Sham states=           58
     kinetic-energy cutoff     =     100.0000  Ry
     charge density cutoff     =     400.0000  Ry
     Exchange-correlation= PBE
                           (   1   4   3   4   0   0   0)

[...]

     atomic species   valence    mass     pseudopotential
     Nb               13.00    92.90637     Nb( 1.00)
     F                 7.00    18.99840     F ( 1.00)

      6 Sym. Ops. (no inversion) found

[...]

     site n.     atom                  positions (alat units)
         1        Nb     tau(   1) = (   0.2520494   0.0000000  -0.4284351  )
         2        Nb     tau(   2) = (  -0.1260247   0.2182811  -0.4284351  )
         3        Nb     tau(   3) = (  -0.1260247  -0.2182811  -0.4284351  )
         4        F      tau(   4) = (   0.0000000   0.0000000  -0.6949788  )
         5        F      tau(   5) = (   0.8538710   0.0000000  -0.6151800  )
         6        F      tau(   6) = (   0.4390899   0.2394740  -0.6151800  )
         7        F      tau(   7) = (   0.4390899  -0.2394740  -0.6151800  )
         8        F      tau(   8) = (   0.5773503  -0.0000000  -0.2349628  )
         9        F      tau(   9) = (  -0.2772320  -0.0000000  -0.1987354  )
        10        F      tau(  10) = (   0.1386160  -0.2400899  -0.1987354  )
        11        F      tau(  11) = (   0.1386160   0.2400899  -0.1987354  )

     DFT-D3 Dispersion Correction (no 3-body):
       Reference C6 values for interpolation:

         atom   Coordination number   C6
         F          0.000            19.38
         F          0.998            14.27
         Nb         0.000          2950.50
         Nb         1.954          1161.16
         Nb         2.922           857.79

       Values used:

         atom   Coordination number  R0_AB[au]  C6      C8
         Nb         9.389            3.647    857.79 111659.18
         Nb         9.389            3.647    857.79 111659.18
         Nb         9.389            3.647    857.79 111659.18
         F          2.907            2.173     14.27    244.15
         F          2.017            2.173     14.27    244.15
         F          2.017            2.173     14.27    244.15
         F          2.017            2.173     14.27    244.15
         F          2.836            2.173     14.27    244.15
         F          2.021            2.173     14.27    244.15
         F          2.021            2.173     14.27    244.15
         F          2.021            2.173     14.27    244.15

         Molecular C6 ( Ry / a.u.^6 ) =     13163.94

     number of k points=    26  Gaussian smearing, width (Ry)=  0.0037
                       cart. coord. in units 2pi/alat
        k(    1) = (   0.0000000   0.0000000   0.0000000), wk =   0.0555556
        k(    2) = (   0.2886751  -0.5000000   0.0000000), wk =   0.0000000
        k(    3) = (  -0.0962250   0.1666667   0.0000000), wk =   0.1111111
        k(    4) = (   0.1924501  -0.3333333   0.0000000), wk =   0.0000000
        k(    5) = (  -0.1924501   0.3333333   0.0000000), wk =   0.1111111
        k(    6) = (   0.0962250  -0.1666667   0.0000000), wk =   0.0000000
        k(    7) = (   0.2886751  -0.5000000   0.0000000), wk =   0.0555556
        k(    8) = (   0.5773503  -1.0000000   0.0000000), wk =   0.0000000
        k(    9) = (  -0.0000000   0.3333333   0.0000000), wk =   0.2222222
        k(   10) = (   0.2886751  -0.1666667   0.0000000), wk =   0.0000000
        k(   11) = (  -0.0962250   0.5000000   0.0000000), wk =   0.2222222
        k(   12) = (   0.1924501   0.0000000   0.0000000), wk =   0.0000000
        k(   13) = (  -0.0000000   0.6666667   0.0000000), wk =   0.1111111
        k(   14) = (   0.2886751   0.1666667   0.0000000), wk =   0.0000000
        k(   15) = (   0.1924501  -0.0000000   0.0000000), wk =   0.2222222
        k(   16) = (   0.4811252  -0.5000000   0.0000000), wk =   0.0000000
        k(   17) = (   0.3849002  -0.0000000   0.0000000), wk =   0.2222222
        k(   18) = (   0.6735753  -0.5000000   0.0000000), wk =   0.0000000
        k(   19) = (  -0.5773503   0.0000000   0.0000000), wk =   0.1111111
        k(   20) = (  -0.2886751  -0.5000000   0.0000000), wk =   0.0000000
        k(   21) = (   0.2886751   0.1666667   0.0000000), wk =   0.1111111
        k(   22) = (   0.5773503  -0.3333333   0.0000000), wk =   0.0000000
        k(   23) = (   0.4811252  -0.1666667   0.0000000), wk =   0.2222222
        k(   24) = (   0.7698004  -0.6666667   0.0000000), wk =   0.0000000
        k(   25) = (   0.4811252   0.1666667   0.0000000), wk =   0.2222222
        k(   26) = (   0.7698004  -0.3333333   0.0000000), wk =   0.0000000

     The potential is recalculated from file :
     ./out/_ph0/Nb3F8.q_2/Nb3F8.save/charge-density

     Starting wfcs are    0 atomic +   58 random wfcs

     Band Structure Calculation
     Davidson diagonalization with overlap

     ethr =  1.05E-11,  avg # of iterations = 34.1

     End of band structure calculation

          k = 0.0000 0.0000 0.0000 ( 83541 PWs)   bands (ev):

   -58.5074 -58.2412 -58.2412 -35.6527 -35.0949 -35.0949 -34.9788 -34.4701
   -34.4701 -34.0389 -33.8157 -33.8157 -28.0501 -27.4658 -27.4032 -27.2607
   -27.2607 -26.6901 -26.6091 -26.6091 -10.5827 -10.5646 -10.5646 -10.2547
    -9.9074  -9.9074  -9.7830  -9.6983  -9.4835  -9.4835  -9.3131  -9.3131
    -9.2088  -8.6502  -8.6456  -8.6456  -8.4118  -8.3686  -8.3686  -8.2837
    -7.8778  -7.8778  -7.7624  -7.7624  -4.1042  -3.3836  -3.3836  -1.7874
    -0.6338  -0.6338  -0.2030   0.2694   0.2694   0.6988   1.1167   1.1167
     1.1368   1.4758

[...]

          k =-0.0962 0.1667 0.0000 ( 83555 PWs)   bands (ev):

[...]

          k =-0.2887-0.5000 0.0000 ( 83612 PWs)   bands (ev):

[...]

          k = 0.7698-0.3333 0.0000 ( 83565 PWs)   bands (ev):

   -58.4936 -58.2559 -58.2413 -35.4635 -35.0350 -34.9468 -34.9088 -34.5640
   -34.5007 -34.1901 -34.0844 -33.8843 -27.8473 -27.6106 -27.2600 -27.1293
   -26.9811 -26.9187 -26.7799 -26.6737 -10.6531 -10.3775 -10.1986 -10.0516
    -9.9141  -9.8332  -9.7097  -9.5066  -9.4797  -9.3942  -9.3566  -9.2153
    -9.1529  -8.9773  -8.7240  -8.6728  -8.5865  -8.4775  -8.3789  -8.3475
    -8.2011  -7.9489  -7.8376  -7.7153  -4.2730  -3.2645  -3.1738  -2.0474
    -0.6804  -0.6036  -0.1872  -0.0110   0.1104   0.4058   0.5058   0.9120
     1.4103   1.6710

     the Fermi energy is    -1.9988 ev

     Writing config to output data dir ./out/_ph0/Nb3F8.q_2/Nb3F8.save/ :
     XML data file

     Nb3F8

     bravais-lattice index     =            0
     lattice parameter (alat)  =      11.1557  a.u.
     unit-cell volume          =    4949.5834 (a.u.)^3
     number of atoms/cell      =           11
     number of atomic types    =            2
     kinetic-energy cut-off    =     100.0000  Ry
     charge density cut-off    =     400.0000  Ry
     convergence threshold     =      1.0E-16
     beta                      =       0.7000
     number of iterations used =            4
     Exchange-correlation= PBE
                           (   1   4   3   4   0   0   0)

     celldm(1)=   11.15573  celldm(2)=    0.00000  celldm(3)=    0.00000
     celldm(4)=    0.00000  celldm(5)=    0.00000  celldm(6)=    0.00000

     crystal axes: (cart. coord. in units of alat)
               a(1) = (  0.8660  0.5000  0.0000 )
               a(2) = ( -0.8660  0.5000  0.0000 )
               a(3) = (  0.0000  0.0000  4.1166 )

     reciprocal axes: (cart. coord. in units 2 pi/alat)
               b(1) = (  0.5774  1.0000 -0.0000 )
               b(2) = ( -0.5774  1.0000  0.0000 )
               b(3) = (  0.0000 -0.0000  0.2429 )

     Atoms inside the unit cell:

     Cartesian axes

     site n.  atom      mass           positions (alat units)
        1  Nb     92.9064   tau(    1) = (    0.25205    0.00000   -0.42844  )
        2  Nb     92.9064   tau(    2) = (   -0.12602    0.21828   -0.42844  )
        3  Nb     92.9064   tau(    3) = (   -0.12602   -0.21828   -0.42844  )
        4  F      18.9984   tau(    4) = (    0.00000    0.00000   -0.69498  )
        5  F      18.9984   tau(    5) = (    0.85387    0.00000   -0.61518  )
        6  F      18.9984   tau(    6) = (    0.43909    0.23947   -0.61518  )
        7  F      18.9984   tau(    7) = (    0.43909   -0.23947   -0.61518  )
        8  F      18.9984   tau(    8) = (    0.57735   -0.00000   -0.23496  )
        9  F      18.9984   tau(    9) = (   -0.27723   -0.00000   -0.19874  )
       10  F      18.9984   tau(   10) = (    0.13862   -0.24009   -0.19874  )
       11  F      18.9984   tau(   11) = (    0.13862    0.24009   -0.19874  )

     Computing dynamical matrix for
                    q = (   0.2886751  -0.5000000   0.0000000 )

      3 Sym.Ops. (with q -> -q+G )

     G cutoff = 1260.9456  (  20905 G-vectors)     FFT grid: ( 72, 72,300)

     number of k points=    26  Gaussian smearing, width (Ry)=  0.0037

     PseudoPot. # 1 for Nb read from file:
     /scratch-shared/mroesner/Nb3X8_cDFPT/pp/Nb_ONCV_PBE-1.2.upf
     MD5 check sum: 2c750ac0b6910ff4cf0ab5f6c4124a64
     Pseudo is Norm-conserving, Zval = 13.0
     Generated using ONCVPSP code by D. R. Hamann
     Using radial grid of  602 points,  6 beta functions with:
                l(1) =   0
                l(2) =   0
                l(3) =   1
                l(4) =   1
                l(5) =   2
                l(6) =   2

     PseudoPot. # 2 for F  read from file:
     /scratch-shared/mroesner/Nb3X8_cDFPT/pp/F_ONCV_PBE-1.2.upf
     MD5 check sum: 1d8275f47d602dd53cad6bcdc0eda7dc
     Pseudo is Norm-conserving, Zval =  7.0
     Generated using ONCVPSP code by D. R. Hamann
     Using radial grid of  602 points,  4 beta functions with:
                l(1) =   0
                l(2) =   0
                l(3) =   1
                l(4) =   1

     Mode symmetry, C_s (m)     point group:

     Atomic displacements:
     There are   33 irreducible representations

[...]

     Representation    33      1 modes -  To be done

     Message from routine init_vloc:
     Interpolation table for Vloc re-allocated

     Alpha used in Ewald sum =   2.8000

     Reading Grimme-D3 Hessian from file: ./out/Nb3F8.hess

     Number of cells replicated along each semiaxis:   10  10   3
     Number of cells in the supercell:      3087
     Number of atoms in the supercell:     33957
     Hessian allocation dimension:   3361743

     Grimme-D3 Hessian read

     Computing dynamical matrix for q:     0.288675   -0.500000    0.000000

     Writing Hessian on file dynamical.false.dat

     Dynamical matrix computed

[...]

     Representation #  33 mode #  33

     Self-consistent Calculation

[...]

      thresh= 1.964E-09 alpha_mix =  0.700 |ddv_scf|^2 =  4.059E-17

     End of self-consistent calculation

     Convergence has been achieved

     Number of q in the star =    3
     List of q in the star:
          1   0.288675135  -0.500000000   0.000000000
          2  -0.577350269   0.000000000   0.000000000
          3   0.288675135   0.500000000   0.000000000

     Diagonalizing the dynamical matrix

     q = (    0.288675135  -0.500000000   0.000000000 )

     freq (    1) =       1.541943 [THz] =      51.433688 [cm-1]
     freq (    2) =       1.664526 [THz] =      55.522599 [cm-1]
     freq (    3) =       1.801486 [THz] =      60.091103 [cm-1]
     freq (    4) =       2.442617 [THz] =      81.476947 [cm-1]
     freq (    5) =       3.525410 [THz] =     117.595031 [cm-1]
     freq (    6) =       3.703055 [THz] =     123.520611 [cm-1]
     freq (    7) =       4.368103 [THz] =     145.704221 [cm-1]
     freq (    8) =       4.757926 [THz] =     158.707326 [cm-1]
     freq (    9) =       5.718189 [THz] =     190.738248 [cm-1]
     freq (   10) =       5.762587 [THz] =     192.219228 [cm-1]
     freq (   11) =       6.118338 [THz] =     204.085776 [cm-1]
     freq (   12) =       6.644504 [THz] =     221.636808 [cm-1]
     freq (   13) =       7.156393 [THz] =     238.711589 [cm-1]
     freq (   14) =       7.663503 [THz] =     255.626947 [cm-1]
     freq (   15) =       8.757308 [THz] =     292.112354 [cm-1]
     freq (   16) =       9.038016 [THz] =     301.475748 [cm-1]
     freq (   17) =       9.287506 [THz] =     309.797843 [cm-1]
     freq (   18) =       9.302617 [THz] =     310.301895 [cm-1]
     freq (   19) =       9.665112 [THz] =     322.393437 [cm-1]
     freq (   20) =       9.670604 [THz] =     322.576634 [cm-1]
     freq (   21) =      10.056121 [THz] =     335.436091 [cm-1]
     freq (   22) =      10.189780 [THz] =     339.894466 [cm-1]
     freq (   23) =      10.203357 [THz] =     340.347339 [cm-1]
     freq (   24) =      10.475191 [THz] =     349.414759 [cm-1]
     freq (   25) =      10.902421 [THz] =     363.665627 [cm-1]
     freq (   26) =      11.520076 [THz] =     384.268374 [cm-1]
     freq (   27) =      12.128911 [THz] =     404.576915 [cm-1]
     freq (   28) =      12.324287 [THz] =     411.093951 [cm-1]
     freq (   29) =      13.127636 [THz] =     437.890802 [cm-1]
     freq (   30) =      14.558074 [THz] =     485.605083 [cm-1]
     freq (   31) =      15.593834 [THz] =     520.154327 [cm-1]
     freq (   32) =      16.354262 [THz] =     545.519474 [cm-1]
     freq (   33) =      16.390247 [THz] =     546.719777 [cm-1]

     Mode symmetry, C_s (m)     point group:

     freq (   1-   1) =         51.4  [cm-1]   --> A'
     freq (   2-   2) =         55.5  [cm-1]   --> A''
     freq (   3-   3) =         60.1  [cm-1]   --> A'
     freq (   4-   4) =         81.5  [cm-1]   --> A''
     freq (   5-   5) =        117.6  [cm-1]   --> A'
     freq (   6-   6) =        123.5  [cm-1]   --> A''
     freq (   7-   7) =        145.7  [cm-1]   --> A'
     freq (   8-   8) =        158.7  [cm-1]   --> A''
     freq (   9-   9) =        190.7  [cm-1]   --> A'
     freq (  10-  10) =        192.2  [cm-1]   --> A''
     freq (  11-  11) =        204.1  [cm-1]   --> A'
     freq (  12-  12) =        221.6  [cm-1]   --> A'
     freq (  13-  13) =        238.7  [cm-1]   --> A''
     freq (  14-  14) =        255.6  [cm-1]   --> A'
     freq (  15-  15) =        292.1  [cm-1]   --> A'
     freq (  16-  16) =        301.5  [cm-1]   --> A''
     freq (  17-  17) =        309.8  [cm-1]   --> A''
     freq (  18-  18) =        310.3  [cm-1]   --> A'
     freq (  19-  19) =        322.4  [cm-1]   --> A''
     freq (  20-  20) =        322.6  [cm-1]   --> A'
     freq (  21-  21) =        335.4  [cm-1]   --> A'
     freq (  22-  22) =        339.9  [cm-1]   --> A'
     freq (  23-  23) =        340.3  [cm-1]   --> A''
     freq (  24-  24) =        349.4  [cm-1]   --> A''
     freq (  25-  25) =        363.7  [cm-1]   --> A''
     freq (  26-  26) =        384.3  [cm-1]   --> A'
     freq (  27-  27) =        404.6  [cm-1]   --> A'
     freq (  28-  28) =        411.1  [cm-1]   --> A''
     freq (  29-  29) =        437.9  [cm-1]   --> A'
     freq (  30-  30) =        485.6  [cm-1]   --> A'
     freq (  31-  31) =        520.2  [cm-1]   --> A''
     freq (  32-  32) =        545.5  [cm-1]   --> A'
     freq (  33-  33) =        546.7  [cm-1]   --> A'

     General routines

     Parallel routines

     INITIALIZATION:

     DYNAMICAL MATRIX:

                                        0.00s GPU  (    1353 calls)

                                        0.00s GPU  (      99 calls)

      General routines

      Additional routines
                                        0.00s GPU  (   42765 calls)
                                        0.00s GPU  (   42765 calls)

   This run was terminated on:   6:54:31   8May2025

   JOB DONE.