     Program PWSCF v.7.3.1 starts on  7May2025 at 22:44:46

     Waiting for input...
     Reading input from standard input
Warning: card &CELL ignored
Warning: card / ignored
Warning: card &FCP ignored
Warning: card / ignored
Warning: card &RISM ignored
Warning: card / ignored

     Current dimensions of program PWSCF are:
     Max number of different atomic species (ntypx) = 10
     Max number of k-points (npk) =  40000
     Max angular momentum in pseudopotentials (lmaxx) =  4

     IMPORTANT: XC functional enforced from input :
     Exchange-correlation= PBE
                           (   1   4   3   4   0   0   0)
     Any further DFT definition will be discarded
     Please, verify this is what you really want

     Message from routine setup:
     using ibrav=0 with symmetry is DISCOURAGED, use correct ibrav instead

     K-points division:     npool     =      12
     R & G space division:  proc/nbgrp/npool/nimage =      32
     Subspace diagonalization in iterative solution of the eigenvalue problem:
     a serial algorithm will be used

     Message from routine divide_et_impera:
     suboptimal parallelization: some nodes have no k-points

     Using Slab Decomposition

     bravais-lattice index     =            0
     lattice parameter (alat)  =      11.1557  a.u.
     unit-cell volume          =    4949.5834 (a.u.)^3
     number of atoms/cell      =           11
     number of atomic types    =            2
     number of electrons       =        95.00
     number of Kohn-Sham states=           58
     kinetic-energy cutoff     =     100.0000  Ry
     charge density cutoff     =     400.0000  Ry
     scf convergence threshold =      1.0E-12
     mixing beta               =       0.7000
     number of iterations used =            8  plain     mixing
     Exchange-correlation= PBE
                           (   1   4   3   4   0   0   0)

     celldm(1)=  11.155732  celldm(2)=   0.000000  celldm(3)=   0.000000
     celldm(4)=   0.000000  celldm(5)=   0.000000  celldm(6)=   0.000000

     crystal axes: (cart. coord. in units of alat)
               a(1) = (   0.866025   0.500000   0.000000 )
               a(2) = (  -0.866025   0.500000   0.000000 )
               a(3) = (   0.000000   0.000000   4.116649 )

     reciprocal axes: (cart. coord. in units 2 pi/alat)
               b(1) = (  0.577350  1.000000 -0.000000 )
               b(2) = ( -0.577350  1.000000  0.000000 )
               b(3) = (  0.000000 -0.000000  0.242916 )

     PseudoPot. # 1 for Nb read from file:
     /scratch-shared/mroesner/Nb3X8_cDFPT/pp/Nb_ONCV_PBE-1.2.upf
     MD5 check sum: 2c750ac0b6910ff4cf0ab5f6c4124a64
     Pseudo is Norm-conserving, Zval = 13.0
     Generated using ONCVPSP code by D. R. Hamann
     Using radial grid of  602 points,  6 beta functions with:
                l(1) =   0
                l(2) =   0
                l(3) =   1
                l(4) =   1
                l(5) =   2
                l(6) =   2

     PseudoPot. # 2 for F  read from file:
     /scratch-shared/mroesner/Nb3X8_cDFPT/pp/F_ONCV_PBE-1.2.upf
     MD5 check sum: 1d8275f47d602dd53cad6bcdc0eda7dc
     Pseudo is Norm-conserving, Zval =  7.0
     Generated using ONCVPSP code by D. R. Hamann
     Using radial grid of  602 points,  4 beta functions with:
                l(1) =   0
                l(2) =   0
                l(3) =   1
                l(4) =   1

     atomic species   valence    mass     pseudopotential
     Nb               13.00    92.90637     Nb( 1.00)
     F                 7.00    18.99840     F ( 1.00)

      6 Sym. Ops. (no inversion) found

                                    s                        frac. trans.

      isym =  1     identity

 cryst.   s( 1) = (     1          0          0      )
                  (     0          1          0      )
                  (     0          0          1      )

 cart.    s( 1) = (  1.0000000  0.0000000  0.0000000 )
                  (  0.0000000  1.0000000  0.0000000 )
                  (  0.0000000  0.0000000  1.0000000 )

      isym =  2     120 deg rotation - cryst. axis [0,0,1]

[...]

      isym =  3     120 deg rotation - cryst. axis [0,0,-1]

[...]

      isym =  4     inv. 180 deg rotation - cart. axis [0,1,0]

[...]

      isym =  5     inv. 180 deg rotation - cryst. axis [1,-1,0]

[...]

      isym =  6     inv. 180 deg rotation - cryst. axis [2,1,0]

 cryst.   s( 6) = (    -1          0          0      )
                  (     1          1          0      )
                  (     0          0          1      )

 cart.    s( 6) = ( -0.5000000 -0.8660254  0.0000000 )
                  ( -0.8660254  0.5000000  0.0000000 )
                  (  0.0000000  0.0000000  1.0000000 )

   Cartesian axes

     site n.     atom                  positions (alat units)
         1        Nb     tau(   1) = (   0.2520494   0.0000000  -0.4284351  )
         2        Nb     tau(   2) = (  -0.1260247   0.2182811  -0.4284351  )
         3        Nb     tau(   3) = (  -0.1260247  -0.2182811  -0.4284351  )
         4        F      tau(   4) = (  -0.0000000   0.0000000  -0.6949788  )
         5        F      tau(   5) = (   0.8538710   0.0000000  -0.6151800  )
         6        F      tau(   6) = (   0.4390899   0.2394740  -0.6151800  )
         7        F      tau(   7) = (   0.4390899  -0.2394740  -0.6151800  )
         8        F      tau(   8) = (   0.5773503  -0.0000000  -0.2349628  )
         9        F      tau(   9) = (  -0.2772320  -0.0000000  -0.1987354  )
        10        F      tau(  10) = (   0.1386160  -0.2400899  -0.1987354  )
        11        F      tau(  11) = (   0.1386160   0.2400899  -0.1987354  )

     DFT-D3 Dispersion Correction (no 3-body):
       Reference C6 values for interpolation:

         atom   Coordination number   C6
         F          0.000            19.38
         F          0.998            14.27
         Nb         0.000          2950.50
         Nb         1.954          1161.16
         Nb         2.922           857.79

       Values used:

         atom   Coordination number  R0_AB[au]  C6      C8
         Nb         9.389            3.647    857.79 111659.18
         Nb         9.389            3.647    857.79 111659.18
         Nb         9.389            3.647    857.79 111659.18
         F          2.907            2.173     14.27    244.15
         F          2.017            2.173     14.27    244.15
         F          2.017            2.173     14.27    244.15
         F          2.017            2.173     14.27    244.15
         F          2.836            2.173     14.27    244.15
         F          2.021            2.173     14.27    244.15
         F          2.021            2.173     14.27    244.15
         F          2.021            2.173     14.27    244.15

         Molecular C6 ( Ry / a.u.^6 ) =     13163.94

   Crystallographic axes

     site n.     atom                  positions (cryst. coord.)
         1        Nb     tau(   1) = (  0.1455208 -0.1455208 -0.1040737  )
         2        Nb     tau(   2) = (  0.1455208  0.2910415 -0.1040737  )
         3        Nb     tau(   3) = ( -0.2910415 -0.1455208 -0.1040737  )
         4        F      tau(   4) = (  0.0000000  0.0000000 -0.1688215  )
         5        F      tau(   5) = (  0.4929827 -0.4929827 -0.1494371  )
         6        F      tau(   6) = (  0.4929827 -0.0140347 -0.1494371  )
         7        F      tau(   7) = (  0.0140347 -0.4929827 -0.1494371  )
         8        F      tau(   8) = (  0.3333333 -0.3333333 -0.0570762  )
         9        F      tau(   9) = ( -0.1600600  0.1600600 -0.0482760  )
        10        F      tau(  10) = ( -0.1600600 -0.3201199 -0.0482760  )
        11        F      tau(  11) = (  0.3201199  0.1600600 -0.0482760  )

     number of k points=     7  Gaussian smearing, width (Ry)=  0.0037
                       cart. coord. in units 2pi/alat
        k(    1) = (   0.0000000   0.0000000   0.0000000), wk =   0.0555556
        k(    2) = (  -0.0962250   0.1666667   0.0000000), wk =   0.3333333
        k(    3) = (  -0.1924501   0.3333333   0.0000000), wk =   0.3333333
        k(    4) = (   0.2886751  -0.5000000   0.0000000), wk =   0.1666667
        k(    5) = (  -0.0000000   0.3333333   0.0000000), wk =   0.3333333
        k(    6) = (  -0.0962250   0.5000000   0.0000000), wk =   0.6666667
        k(    7) = (  -0.0000000   0.6666667   0.0000000), wk =   0.1111111

                       cryst. coord.
        k(    1) = (   0.0000000   0.0000000   0.0000000), wk =   0.0555556
        k(    2) = (   0.0000000   0.1666667   0.0000000), wk =   0.3333333
        k(    3) = (   0.0000000   0.3333333   0.0000000), wk =   0.3333333
        k(    4) = (  -0.0000000  -0.5000000   0.0000000), wk =   0.1666667
        k(    5) = (   0.1666667   0.1666667   0.0000000), wk =   0.3333333
        k(    6) = (   0.1666667   0.3333333   0.0000000), wk =   0.6666667
        k(    7) = (   0.3333333   0.3333333   0.0000000), wk =   0.1111111

     Initial potential from superposition of free atoms

     starting charge      94.6507, renormalised to      95.0000

     negative rho (up, down):  1.134E-03 0.000E+00
     Starting wfcs are random

     Self-consistent Calculation

     iteration #  1     ecut=   100.00 Ry     beta= 0.70
     Davidson diagonalization with overlap

     ethr =  1.00E-02,  avg # of iterations = 16.1

     Threshold (ethr) on eigenvalues was too large:
     Diagonalizing with lowered threshold

     Davidson diagonalization with overlap

[...]

     negative rho (up, down):  2.420E-04 0.000E+00

     total energy              =    -725.06913004 Ry
     estimated scf accuracy    <       0.90723941 Ry

[...]

     negative rho (up, down):  1.757E-08 0.000E+00

[...]

     total energy              =    -725.43080845 Ry
     estimated scf accuracy    <          8.2E-12 Ry

     iteration # 14     ecut=   100.00 Ry     beta= 0.70
     Davidson diagonalization with overlap

     ethr =  1.00E-13,  avg # of iterations =  3.7

     End of self-consistent calculation

          k = 0.0000 0.0000 0.0000 ( 83541 PWs)   bands (ev):

   -58.5074 -58.2412 -58.2412 -35.6527 -35.0949 -35.0949 -34.9788 -34.4701
   -34.4701 -34.0389 -33.8157 -33.8157 -28.0501 -27.4658 -27.4032 -27.2607
   -27.2607 -26.6901 -26.6091 -26.6091 -10.5827 -10.5646 -10.5646 -10.2547
    -9.9074  -9.9074  -9.7830  -9.6983  -9.4835  -9.4835  -9.3131  -9.3131
    -9.2088  -8.6502  -8.6456  -8.6456  -8.4118  -8.3687  -8.3687  -8.2837
    -7.8778  -7.8778  -7.7624  -7.7624  -4.1042  -3.3836  -3.3836  -1.7874
    -0.6338  -0.6338  -0.2030   0.2694   0.2694   0.6988   1.1167   1.1167
     1.1368   1.4758

     occupation numbers
     1.0000   1.0000   1.0000   1.0000   1.0000   1.0000   1.0000   1.0000
     1.0000   1.0000   1.0000   1.0000   1.0000   1.0000   1.0000   1.0000
     1.0000   1.0000   1.0000   1.0000   1.0000   1.0000   1.0000   1.0000
     1.0000   1.0000   1.0000   1.0000   1.0000   1.0000   1.0000   1.0000
     1.0000   1.0000   1.0000   1.0000   1.0000   1.0000   1.0000   1.0000
     1.0000   1.0000   1.0000   1.0000   1.0000   1.0000   1.0000   0.0000
     0.0000   0.0000   0.0000   0.0000   0.0000   0.0000   0.0000   0.0000
     0.0000   0.0000

          k =-0.0962 0.1667 0.0000 ( 83555 PWs)   bands (ev):

[...]

          k = 0.2887-0.5000 0.0000 ( 83612 PWs)   bands (ev):

[...]

          k =-0.0000 0.6667 0.0000 ( 83670 PWs)   bands (ev):

   -58.4918 -58.2578 -58.2413 -35.4275 -35.0011 -34.9755 -34.8999 -34.5585
   -34.5162 -34.1884 -34.1010 -33.9275 -27.7982 -27.6525 -27.1279 -27.1252
   -27.1236 -26.8260 -26.7703 -26.7582 -10.6315 -10.3738 -10.2247 -10.0047
    -9.9498  -9.8197  -9.5535  -9.5069  -9.4948  -9.3183  -9.2858  -9.2027
    -9.1874  -9.0526  -8.7804  -8.6893  -8.6471  -8.5724  -8.4274  -8.3278
    -8.1778  -7.8497  -7.8257  -7.8091  -4.2912  -3.2621  -3.1349  -2.0801
    -0.7034  -0.5943  -0.0971  -0.0477   0.2150   0.2570   0.3707   0.8161
     1.5423   1.6937

     occupation numbers
     1.0000   1.0000   1.0000   1.0000   1.0000   1.0000   1.0000   1.0000
     1.0000   1.0000   1.0000   1.0000   1.0000   1.0000   1.0000   1.0000
     1.0000   1.0000   1.0000   1.0000   1.0000   1.0000   1.0000   1.0000
     1.0000   1.0000   1.0000   1.0000   1.0000   1.0000   1.0000   1.0000
     1.0000   1.0000   1.0000   1.0000   1.0000   1.0000   1.0000   1.0000
     1.0000   1.0000   1.0000   1.0000   1.0000   1.0000   1.0000   0.9893
     0.0000   0.0000   0.0000   0.0000   0.0000   0.0000   0.0000   0.0000
     0.0000   0.0000

     the Fermi energy is    -1.9988 ev

!    total energy              =    -725.43080845 Ry
     estimated scf accuracy    <          6.9E-13 Ry
     smearing contrib. (-TS)   =      -0.00075975 Ry
     internal energy E=F+TS    =    -725.43004870 Ry

     The total energy is F=E-TS. E is the sum of the following terms:
     one-electron contribution =   -6081.86983062 Ry
     hartree contribution      =    3047.15687509 Ry
     xc contribution           =    -115.28089172 Ry
     ewald contribution        =    2424.62051323 Ry
     DFT-D3 Dispersion         =      -0.05671468 Ry

     convergence has been achieved in  14 iterations

     Forces acting on atoms (cartesian axes, Ry/au):

     atom    1 type  1   force =    -0.00015502    0.00000000    0.00027545
     atom    2 type  1   force =     0.00007751   -0.00013425    0.00027545
     atom    3 type  1   force =     0.00007751    0.00013425    0.00027545
     atom    4 type  2   force =     0.00000000    0.00000000   -0.00009141
     atom    5 type  2   force =    -0.00001845   -0.00000000   -0.00021455
     atom    6 type  2   force =     0.00000922   -0.00001597   -0.00021455
     atom    7 type  2   force =     0.00000922    0.00001597   -0.00021455
     atom    8 type  2   force =     0.00000000   -0.00000000    0.00006565
     atom    9 type  2   force =    -0.00005154   -0.00000000   -0.00005232
     atom   10 type  2   force =     0.00002577   -0.00004464   -0.00005232
     atom   11 type  2   force =     0.00002577    0.00004464   -0.00005232
     The non-local contrib.  to forces
     atom    1 type  1   force =    -0.36981567    0.00000000   -0.05730333
     atom    2 type  1   force =     0.18490784   -0.32026977   -0.05730333
     atom    3 type  1   force =     0.18490784    0.32026977   -0.05730333
     atom    4 type  2   force =     0.00000000    0.00000000    1.51248358
     atom    5 type  2   force =    -0.58495073   -0.00000000    0.96482144
     atom    6 type  2   force =     0.29247537   -0.50658219    0.96482144
     atom    7 type  2   force =     0.29247537    0.50658219    0.96482144
     atom    8 type  2   force =     0.00000000   -0.00000000   -1.05910399
     atom    9 type  2   force =     0.76133995    0.00000000   -1.21042076
     atom   10 type  2   force =    -0.38066997    0.65933974   -1.21042076
     atom   11 type  2   force =    -0.38066997   -0.65933974   -1.21042076
     The ionic contribution  to forces
     atom    1 type  1   force =     7.34346985    0.00000000   -1.77499783
     atom    2 type  1   force =    -3.67173494    6.35963145   -1.77499783
     atom    3 type  1   force =    -3.67173494   -6.35963145   -1.77499783
     atom    4 type  2   force =    -0.00000000    0.00000000  -54.09524070
     atom    5 type  2   force =     6.69139891    0.00000000  -38.24434482
     atom    6 type  2   force =    -3.34569945    5.79492145  -38.24434482
     atom    7 type  2   force =    -3.34569945   -5.79492145  -38.24434482
     atom    8 type  2   force =     0.00000001    0.00000000   39.98315013
     atom    9 type  2   force =    -9.15058531    0.00000000   44.72337283
     atom   10 type  2   force =     4.57529266   -7.92463934   44.72337284
     atom   11 type  2   force =     4.57529266    7.92463934   44.72337284
     The local contribution  to forces
     atom    1 type  1   force =    -6.97286089   -0.00000000    1.83259615
     atom    2 type  1   force =     3.48643035   -6.03867463    1.83259615
     atom    3 type  1   force =     3.48643035    6.03867463    1.83259616
     atom    4 type  2   force =     0.00000000    0.00000000   52.58212955
     atom    5 type  2   force =    -6.10663334   -0.00000000   37.27866034
     atom    6 type  2   force =     3.05331667   -5.28849960   37.27866034
     atom    7 type  2   force =     3.05331667    5.28849960   37.27866034
     atom    8 type  2   force =     0.00000004   -0.00000000  -38.92354491
     atom    9 type  2   force =     8.38960376    0.00000000  -43.51224413
     atom   10 type  2   force =    -4.19480182    7.26560995  -43.51224413
     atom   11 type  2   force =    -4.19480182   -7.26560995  -43.51224413
     The core correction contribution to forces
     atom    1 type  1   force =     0.00000000    0.00000000    0.00000000
     atom    2 type  1   force =     0.00000000    0.00000000    0.00000000
     atom    3 type  1   force =     0.00000000    0.00000000    0.00000000
     atom    4 type  2   force =     0.00000000    0.00000000    0.00000000
     atom    5 type  2   force =     0.00000000    0.00000000    0.00000000
     atom    6 type  2   force =     0.00000000    0.00000000    0.00000000
     atom    7 type  2   force =     0.00000000    0.00000000    0.00000000
     atom    8 type  2   force =     0.00000000    0.00000000    0.00000000
     atom    9 type  2   force =     0.00000000    0.00000000    0.00000000
     atom   10 type  2   force =     0.00000000    0.00000000    0.00000000
     atom   11 type  2   force =     0.00000000    0.00000000    0.00000000
     The Hubbard contrib.    to forces
     atom    1 type  1   force =     0.00000000    0.00000000    0.00000000
     atom    2 type  1   force =     0.00000000    0.00000000    0.00000000
     atom    3 type  1   force =     0.00000000    0.00000000    0.00000000
     atom    4 type  2   force =     0.00000000    0.00000000    0.00000000
     atom    5 type  2   force =     0.00000000    0.00000000    0.00000000
     atom    6 type  2   force =     0.00000000    0.00000000    0.00000000
     atom    7 type  2   force =     0.00000000    0.00000000    0.00000000
     atom    8 type  2   force =     0.00000000    0.00000000    0.00000000
     atom    9 type  2   force =     0.00000000    0.00000000    0.00000000
     atom   10 type  2   force =     0.00000000    0.00000000    0.00000000
     atom   11 type  2   force =     0.00000000    0.00000000    0.00000000
     The SCF correction term to forces
     atom    1 type  1   force =     0.00000092   -0.00000000   -0.00000260
     atom    2 type  1   force =    -0.00000046    0.00000079   -0.00000260
     atom    3 type  1   force =    -0.00000046   -0.00000079   -0.00000260
     atom    4 type  2   force =     0.00000000   -0.00000000   -0.00000037
     atom    5 type  2   force =    -0.00000017    0.00000000   -0.00000053
     atom    6 type  2   force =     0.00000008   -0.00000015   -0.00000053
     atom    7 type  2   force =     0.00000008    0.00000015   -0.00000053
     atom    8 type  2   force =     0.00000000   -0.00000000   -0.00000065
     atom    9 type  2   force =    -0.00000030    0.00000000   -0.00000063
     atom   10 type  2   force =     0.00000015   -0.00000026   -0.00000063
     atom   11 type  2   force =     0.00000015    0.00000026   -0.00000063

     DFT-D3 dispersion contribution to forces:
     atom    1 type  1   force =    -0.00094928   -0.00000000    0.00000861
     atom    2 type  1   force =     0.00047464   -0.00082210    0.00000861
     atom    3 type  1   force =     0.00047464    0.00082210    0.00000861
     atom    4 type  2   force =    -0.00000000    0.00000000    0.00056209
     atom    5 type  2   force =     0.00016688   -0.00000000    0.00067457
     atom    6 type  2   force =    -0.00008344    0.00014452    0.00067457
     atom    7 type  2   force =    -0.00008344   -0.00014452    0.00067457
     atom    8 type  2   force =    -0.00000000   -0.00000000   -0.00040938
     atom    9 type  2   force =    -0.00040960    0.00000000   -0.00073408
     atom   10 type  2   force =     0.00020480   -0.00035472   -0.00073408
     atom   11 type  2   force =     0.00020480    0.00035472   -0.00073408

     Total force =     0.000684     Total SCF correction =     0.000005

     DFT-D3 dispersion Force =     0.002599

     Computing stress (Cartesian axis) and pressure

          total   stress  (Ry/bohr**3)                   (kbar)     P=        2.15
   0.00002224  -0.00000000   0.00000000            3.27       -0.00        0.00
   0.00000000   0.00002224   0.00000000            0.00        3.27        0.00
   0.00000000   0.00000000  -0.00000055            0.00        0.00       -0.08

     kinetic stress (kbar)   7195.06      0.00      0.00
                                0.00   7195.06      0.00
                                0.00      0.00   7180.14

     local   stress (kbar)-175543.90     -0.00     -0.00
                               -0.00-175543.90     -0.00
                               -0.00     -0.00 169081.96

     nonloc. stress (kbar)    354.57      0.00      0.00
                               -0.00    354.57      0.00
                                0.00     -0.00    363.49

     hartree stress (kbar)  86700.66      0.00      0.00
                                0.00  86700.66     -0.00
                                0.00     -0.00 -82837.68

     exc-cor stress (kbar)  -1082.38     -0.00      0.00
                               -0.00  -1082.38      0.00
                                0.00      0.00  -1085.02

     corecor stress (kbar)      0.00      0.00      0.00
                                0.00      0.00      0.00
                                0.00      0.00      0.00

     ewald   stress (kbar)  82382.01     -0.00      0.00
                               -0.00  82382.01     -0.00
                                0.00     -0.00 -92702.59

     hubbard stress (kbar)      0.00      0.00      0.00
                                0.00      0.00      0.00
                                0.00      0.00      0.00

     DFT-D   stress (kbar)     -2.73      0.00     -0.00
                                0.00     -2.73     -0.00
                               -0.00     -0.00     -0.37

     XDM     stress (kbar)      0.00      0.00      0.00
                                0.00      0.00      0.00
                                0.00      0.00      0.00

     dft-nl  stress (kbar)      0.00      0.00      0.00
                                0.00      0.00      0.00
                                0.00      0.00      0.00

     TS-vdW  stress (kbar)      0.00      0.00      0.00
                                0.00      0.00      0.00
                                0.00      0.00      0.00

     MDB     stress (kbar)      0.00      0.00      0.00
                                0.00      0.00      0.00
                                0.00      0.00      0.00

     3D-RISM stress (kbar)      0.00      0.00      0.00
                                0.00      0.00      0.00
                                0.00      0.00      0.00

     Writing all to output data dir ./out/Nb3F8.save/ :
     XML data file, charge density, pseudopotentials, collected wavefunctions

     General routines

     Parallel routines

   This run was terminated on:  22:45:35   7May2025

   JOB DONE.