     Program PHONON v.7.3.1 starts on  7May2025 at 22:23:26

     Waiting for input...
     Reading input from standard input
     Run is not recoverable starting from scratch

     Reading xml data from directory:

     ./out/Nb3Br8.save/

     K-points division:     npool     =      12
     R & G space division:  proc/nbgrp/npool/nimage =      32
     Subspace diagonalization in iterative solution of the eigenvalue problem:
     a serial algorithm will be used

     IMPORTANT: XC functional enforced from input :
     Exchange-correlation= PBE
                           (   1   4   3   4   0   0   0)
     Any further DFT definition will be discarded
     Please, verify this is what you really want

     Using Slab Decomposition

     Message from routine divide_et_impera:
     suboptimal parallelization: some nodes have no k-points
     Reading collected, re-writing distributed wavefunctions in ./out/

     Dynamical matrices for ( 2, 2, 1)  uniform grid of q-points
     (   2 q-points):
       N         xq(1)         xq(2)         xq(3)
       1   0.000000000   0.000000000   0.000000000
       2   0.288675135  -0.500000000   0.000000000

     Number and degeneracy of irreps per q-point
       N         xq(1)         xq(2)         xq(3)   N irreps
       1   0.000000000   0.000000000   0.000000000      22
        1   1   1   1   1   1   1   1   1   1   1   2   2   2   2   2   2   2
   2   2   2   2
       2   0.288675135  -0.500000000   0.000000000      33
     No degeneracy

     Saving dvscf to file. Distribute only q points, not irreducible representations.

     Calculation of q =    0.0000000   0.0000000   0.0000000

     Nb3Br8

     bravais-lattice index     =            0
     lattice parameter (alat)  =      13.3936  a.u.
     unit-cell volume          =    9490.8392 (a.u.)^3
     number of atoms/cell      =           11
     number of atomic types    =            2
     kinetic-energy cut-off    =     100.0000  Ry
     charge density cut-off    =     400.0000  Ry
     convergence threshold     =      1.0E-16
     beta                      =       0.7000
     number of iterations used =            4
     Exchange-correlation= PBE
                           (   1   4   3   4   0   0   0)

     celldm(1)=   13.39359  celldm(2)=    0.00000  celldm(3)=    0.00000
     celldm(4)=    0.00000  celldm(5)=    0.00000  celldm(6)=    0.00000

     crystal axes: (cart. coord. in units of alat)
               a(1) = (  0.8660  0.5000  0.0000 )
               a(2) = ( -0.8660  0.5000  0.0000 )
               a(3) = (  0.0000  0.0000  4.5612 )

     reciprocal axes: (cart. coord. in units 2 pi/alat)
               b(1) = (  0.5774  1.0000 -0.0000 )
               b(2) = ( -0.5774  1.0000  0.0000 )
               b(3) = (  0.0000 -0.0000  0.2192 )

     Atoms inside the unit cell:

     Cartesian axes

     site n.  atom      mass           positions (alat units)
        1  Nb     92.9064   tau(    1) = (    0.23439    0.00000   -0.46584  )
        2  Nb     92.9064   tau(    2) = (   -0.11720    0.20299   -0.46584  )
        3  Nb     92.9064   tau(    3) = (   -0.11720   -0.20299   -0.46584  )
        4  Br     79.9040   tau(    4) = (    0.00000    0.00000   -0.74668  )
        5  Br     79.9040   tau(    5) = (   -0.86123   -0.00000   -0.66862  )
        6  Br     79.9040   tau(    6) = (   -0.43541   -0.24585   -0.66862  )
        7  Br     79.9040   tau(    7) = (   -0.43541    0.24585   -0.66862  )
        8  Br     79.9040   tau(    8) = (    0.57735   -0.00000   -0.26470  )
        9  Br     79.9040   tau(    9) = (   -0.28679    0.00000   -0.21541  )
       10  Br     79.9040   tau(   10) = (    0.14339   -0.24836   -0.21541  )
       11  Br     79.9040   tau(   11) = (    0.14339    0.24836   -0.21541  )

     Computing dynamical matrix for
                    q = (   0.0000000   0.0000000   0.0000000 )

      7 Sym.Ops. (with q -> -q+G )

     G cutoff = 1817.5838  (  40070 G-vectors)     FFT grid: ( 90, 90,400)

     number of k points=     7  Gaussian smearing, width (Ry)=  0.0037

     PseudoPot. # 1 for Nb read from file:
     /scratch-shared/mroesner/Nb3X8_cDFPT/pp/Nb_ONCV_PBE-1.2.upf
     MD5 check sum: 2c750ac0b6910ff4cf0ab5f6c4124a64
     Pseudo is Norm-conserving, Zval = 13.0
     Generated using ONCVPSP code by D. R. Hamann
     Using radial grid of  602 points,  6 beta functions with:
                l(1) =   0
                l(2) =   0
                l(3) =   1
                l(4) =   1
                l(5) =   2
                l(6) =   2

     PseudoPot. # 2 for Br read from file:
     /scratch-shared/mroesner/Nb3X8_cDFPT/pp/Br_ONCV_PBE-1.2.upf
     MD5 check sum: 5b50323dbf1c0ae0ed9e7f1e72c3f86c
     Pseudo is Norm-conserving, Zval =  7.0
     Generated using ONCVPSP code by D. R. Hamann
     Using radial grid of  602 points,  6 beta functions with:
                l(1) =   0
                l(2) =   0
                l(3) =   1
                l(4) =   1
                l(5) =   2
                l(6) =   2

     Mode symmetry, C_3v (3m)   point group:

     Atomic displacements:
     There are   22 irreducible representations

     Representation     1      1 modes -  To be done

[...]

     Alpha used in Ewald sum =   2.8000

     Reading Grimme-D3 Hessian from file: ./out/Nb3Br8.hess

     Number of cells replicated along each semiaxis:    9   9   2
     Number of cells in the supercell:      1805
     Number of atoms in the supercell:     19855
     Hessian allocation dimension:   1965645

     Grimme-D3 Hessian read

     Computing dynamical matrix for q:     0.000000    0.000000    0.000000

     Writing Hessian on file dynamical.false.dat

     Dynamical matrix computed

     Representation #   1 mode #   1

     Self-consistent Calculation

     Pert. #  1: Fermi energy shift (Ry) =    -1.3838E-01     6.3527E-22

      thresh= 1.000E-02 alpha_mix =  0.700 |ddv_scf|^2 =  3.163E-08

[...]

     End of self-consistent calculation

     Convergence has been achieved

[...]

     Representation #  12 modes #  12  13

[...]

     Representation #  22 modes #  32  33

[...]

     Pert. #  1: Fermi energy shift (Ry) =     9.0350E-20     1.1958E-43
     Pert. #  2: Fermi energy shift (Ry) =    -9.0350E-21     0.0000E+00

[...]

     Number of q in the star =    1
     List of q in the star:
          1   0.000000000   0.000000000   0.000000000

     Diagonalizing the dynamical matrix

     q = (    0.000000000   0.000000000   0.000000000 )

     freq (    1) =       0.096510 [THz] =       3.219236 [cm-1]
     freq (    2) =       0.237863 [THz] =       7.934270 [cm-1]
     freq (    3) =       0.237863 [THz] =       7.934270 [cm-1]
     freq (    4) =       1.769405 [THz] =      59.021003 [cm-1]
     freq (    5) =       1.769405 [THz] =      59.021003 [cm-1]
     freq (    6) =       2.373929 [THz] =      79.185742 [cm-1]
     freq (    7) =       2.373929 [THz] =      79.185742 [cm-1]
     freq (    8) =       2.619041 [THz] =      87.361817 [cm-1]
     freq (    9) =       3.370437 [THz] =     112.425691 [cm-1]
     freq (   10) =       3.370437 [THz] =     112.425691 [cm-1]
     freq (   11) =       3.390088 [THz] =     113.081148 [cm-1]
     freq (   12) =       3.624886 [THz] =     120.913172 [cm-1]
     freq (   13) =       3.805611 [THz] =     126.941515 [cm-1]
     freq (   14) =       3.805611 [THz] =     126.941515 [cm-1]
     freq (   15) =       4.025859 [THz] =     134.288202 [cm-1]
     freq (   16) =       4.145066 [THz] =     138.264507 [cm-1]
     freq (   17) =       4.265875 [THz] =     142.294275 [cm-1]
     freq (   18) =       4.265875 [THz] =     142.294275 [cm-1]
     freq (   19) =       4.550597 [THz] =     151.791576 [cm-1]
     freq (   20) =       4.550597 [THz] =     151.791576 [cm-1]
     freq (   21) =       4.950303 [THz] =     165.124337 [cm-1]
     freq (   22) =       5.300042 [THz] =     176.790385 [cm-1]
     freq (   23) =       5.300042 [THz] =     176.790385 [cm-1]
     freq (   24) =       5.674758 [THz] =     189.289555 [cm-1]
     freq (   25) =       5.836555 [THz] =     194.686504 [cm-1]
     freq (   26) =       5.836555 [THz] =     194.686504 [cm-1]
     freq (   27) =       6.224123 [THz] =     207.614409 [cm-1]
     freq (   28) =       7.155843 [THz] =     238.693241 [cm-1]
     freq (   29) =       7.155843 [THz] =     238.693241 [cm-1]
     freq (   30) =       8.021191 [THz] =     267.558146 [cm-1]
     freq (   31) =       8.069149 [THz] =     269.157843 [cm-1]
     freq (   32) =       8.069149 [THz] =     269.157843 [cm-1]
     freq (   33) =       8.863044 [THz] =     295.639339 [cm-1]

     Mode symmetry, C_3v (3m)   point group:

     freq (   1-   1) =          3.2  [cm-1]   --> A_1  L_1        I+R
     freq (   2-   3) =          7.9  [cm-1]   --> E    L_3        I+R
     freq (   4-   5) =         59.0  [cm-1]   --> E    L_3        I+R
     freq (   6-   7) =         79.2  [cm-1]   --> E    L_3        I+R
     freq (   8-   8) =         87.4  [cm-1]   --> A_2  L_2
     freq (   9-  10) =        112.4  [cm-1]   --> E    L_3        I+R
     freq (  11-  11) =        113.1  [cm-1]   --> A_1  L_1        I+R
     freq (  12-  12) =        120.9  [cm-1]   --> A_1  L_1        I+R
     freq (  13-  14) =        126.9  [cm-1]   --> E    L_3        I+R
     freq (  15-  15) =        134.3  [cm-1]   --> A_1  L_1        I+R
     freq (  16-  16) =        138.3  [cm-1]   --> A_2  L_2
     freq (  17-  18) =        142.3  [cm-1]   --> E    L_3        I+R
     freq (  19-  20) =        151.8  [cm-1]   --> E    L_3        I+R
     freq (  21-  21) =        165.1  [cm-1]   --> A_1  L_1        I+R
     freq (  22-  23) =        176.8  [cm-1]   --> E    L_3        I+R
     freq (  24-  24) =        189.3  [cm-1]   --> A_1  L_1        I+R
     freq (  25-  26) =        194.7  [cm-1]   --> E    L_3        I+R
     freq (  27-  27) =        207.6  [cm-1]   --> A_2  L_2
     freq (  28-  29) =        238.7  [cm-1]   --> E    L_3        I+R
     freq (  30-  30) =        267.6  [cm-1]   --> A_1  L_1        I+R
     freq (  31-  32) =        269.2  [cm-1]   --> E    L_3        I+R
     freq (  33-  33) =        295.6  [cm-1]   --> A_1  L_1        I+R

     Calculation of q =    0.2886751  -0.5000000   0.0000000

     Using Slab Decomposition

     Title:
     Nb3Br8

     bravais-lattice index     =            0
     lattice parameter (alat)  =      13.3936  a.u.
     unit-cell volume          =    9490.8392 (a.u.)^3
     number of atoms/cell      =           11
     number of atomic types    =            2
     number of electrons       =        95.00
     number of Kohn-Sham states=           58
     kinetic-energy cutoff     =     100.0000  Ry
     charge density cutoff     =     400.0000  Ry
     Exchange-correlation= PBE
                           (   1   4   3   4   0   0   0)

[...]

     atomic species   valence    mass     pseudopotential
     Nb               13.00    92.90637     Nb( 1.00)
     Br                7.00    79.90400     Br( 1.00)

      6 Sym. Ops. (no inversion) found

[...]

     site n.     atom                  positions (alat units)
         1        Nb     tau(   1) = (   0.2343915   0.0000000  -0.4658352  )
         2        Nb     tau(   2) = (  -0.1171958   0.2029890  -0.4658352  )
         3        Nb     tau(   3) = (  -0.1171958  -0.2029890  -0.4658352  )
         4        Br     tau(   4) = (   0.0000000   0.0000000  -0.7466792  )
         5        Br     tau(   5) = (  -0.8612291  -0.0000000  -0.6686237  )
         6        Br     tau(   6) = (  -0.4354109  -0.2458463  -0.6686237  )
         7        Br     tau(   7) = (  -0.4354109   0.2458463  -0.6686237  )
         8        Br     tau(   8) = (   0.5773503  -0.0000000  -0.2647046  )
         9        Br     tau(   9) = (  -0.2867850   0.0000000  -0.2154095  )
        10        Br     tau(  10) = (   0.1433925  -0.2483631  -0.2154095  )
        11        Br     tau(  11) = (   0.1433925   0.2483631  -0.2154095  )

     DFT-D3 Dispersion Correction (no 3-body):
       Reference C6 values for interpolation:

         atom   Coordination number   C6
         Br         0.000           334.26
         Br         0.997           338.48
         Nb         0.000          2950.50
         Nb         1.954          1161.16
         Nb         2.922           857.79

       Values used:

         atom   Coordination number  R0_AB[au]  C6      C8
         Nb         8.071            3.647    857.79 111659.18
         Nb         8.071            3.647    857.79 111659.18
         Nb         8.071            3.647    857.79 111659.18
         Br         3.481            3.181    338.47  21401.43
         Br         2.747            3.181    338.47  21401.43
         Br         2.747            3.181    338.47  21401.43
         Br         2.747            3.181    338.47  21401.43
         Br         3.632            3.181    338.47  21401.43
         Br         2.682            3.181    338.47  21401.43
         Br         2.682            3.181    338.47  21401.43
         Br         2.682            3.181    338.47  21401.43

         Molecular C6 ( Ry / a.u.^6 ) =     54845.00

     number of k points=    26  Gaussian smearing, width (Ry)=  0.0037
                       cart. coord. in units 2pi/alat
        k(    1) = (   0.0000000   0.0000000   0.0000000), wk =   0.0555556
        k(    2) = (   0.2886751  -0.5000000   0.0000000), wk =   0.0000000
        k(    3) = (  -0.0962250   0.1666667   0.0000000), wk =   0.1111111
        k(    4) = (   0.1924501  -0.3333333   0.0000000), wk =   0.0000000
        k(    5) = (  -0.1924501   0.3333333   0.0000000), wk =   0.1111111
        k(    6) = (   0.0962250  -0.1666667   0.0000000), wk =   0.0000000
        k(    7) = (   0.2886751  -0.5000000   0.0000000), wk =   0.0555556
        k(    8) = (   0.5773503  -1.0000000   0.0000000), wk =   0.0000000
        k(    9) = (   0.0000000   0.3333333   0.0000000), wk =   0.2222222
        k(   10) = (   0.2886751  -0.1666667   0.0000000), wk =   0.0000000
        k(   11) = (  -0.0962250   0.5000000   0.0000000), wk =   0.2222222
        k(   12) = (   0.1924501   0.0000000   0.0000000), wk =   0.0000000
        k(   13) = (   0.0000000   0.6666667   0.0000000), wk =   0.1111111
        k(   14) = (   0.2886751   0.1666667   0.0000000), wk =   0.0000000
        k(   15) = (   0.1924501  -0.0000000   0.0000000), wk =   0.2222222
        k(   16) = (   0.4811252  -0.5000000   0.0000000), wk =   0.0000000
        k(   17) = (   0.3849002  -0.0000000   0.0000000), wk =   0.2222222
        k(   18) = (   0.6735753  -0.5000000   0.0000000), wk =   0.0000000
        k(   19) = (  -0.5773503   0.0000000   0.0000000), wk =   0.1111111
        k(   20) = (  -0.2886751  -0.5000000   0.0000000), wk =   0.0000000
        k(   21) = (   0.2886751   0.1666667   0.0000000), wk =   0.1111111
        k(   22) = (   0.5773503  -0.3333333   0.0000000), wk =   0.0000000
        k(   23) = (   0.4811252  -0.1666667   0.0000000), wk =   0.2222222
        k(   24) = (   0.7698004  -0.6666667   0.0000000), wk =   0.0000000
        k(   25) = (   0.4811252   0.1666667   0.0000000), wk =   0.2222222
        k(   26) = (   0.7698004  -0.3333333   0.0000000), wk =   0.0000000

     The potential is recalculated from file :
     ./out/_ph0/Nb3Br8.q_2/Nb3Br8.save/charge-density

     Starting wfcs are    0 atomic +   58 random wfcs

     Band Structure Calculation
     Davidson diagonalization with overlap

     ethr =  1.05E-11,  avg # of iterations = 76.7

     End of band structure calculation

          k = 0.0000 0.0000 0.0000 (160347 PWs)   bands (ev):

   -57.8279 -57.7535 -57.7535 -34.1737 -34.0143 -34.0108 -34.0108 -33.9206
   -33.9206 -33.7040 -33.5549 -33.5549 -18.9527 -18.4190 -17.8600 -17.8114
   -17.8114 -17.6714 -17.3182 -17.3182  -8.4679  -8.4679  -8.1406  -7.9175
    -7.5717  -7.5717  -7.3336  -7.2905  -6.8252  -6.8252  -6.1852  -5.9994
    -5.9994  -5.7819  -5.7205  -5.7205  -5.3314  -5.3314  -5.2993  -5.2049
    -4.5409  -4.5409  -3.9374  -3.9374  -3.5625  -2.9864  -2.9864  -1.9268
    -1.0637  -1.0637  -0.4272  -0.2471  -0.2471   0.1458   0.2097   0.2097
     0.4028   0.4028

[...]

          k =-0.0962 0.1667 0.0000 (160353 PWs)   bands (ev):

[...]

          k =-0.2887-0.5000 0.0000 (160226 PWs)   bands (ev):

[...]

          k = 0.7698-0.3333 0.0000 (160239 PWs)   bands (ev):

   -57.8274 -57.7540 -57.7535 -34.1617 -34.0104 -34.0073 -34.0025 -33.9238
   -33.9213 -33.7106 -33.5706 -33.5594 -18.8887 -18.2264 -18.0538 -17.9238
   -17.7656 -17.6040 -17.4508 -17.3122  -8.0985  -7.9779  -7.7733  -7.5615
    -7.4307  -7.2003  -7.0748  -7.0064  -6.9461  -6.8116  -6.6176  -6.4435
    -6.3120  -6.1072  -6.0786  -5.8098  -5.6776  -5.4669  -5.2692  -5.2364
    -4.9954  -4.8438  -4.6538  -4.2713  -3.7244  -3.0624  -2.9281  -1.9756
    -1.1110  -0.8582  -0.5318  -0.4019  -0.3788  -0.2555  -0.0798   0.1309
     0.3746   0.6819

     the Fermi energy is    -1.9663 ev

     Writing config to output data dir ./out/_ph0/Nb3Br8.q_2/Nb3Br8.save/ :
     XML data file

     Nb3Br8

     bravais-lattice index     =            0
     lattice parameter (alat)  =      13.3936  a.u.
     unit-cell volume          =    9490.8392 (a.u.)^3
     number of atoms/cell      =           11
     number of atomic types    =            2
     kinetic-energy cut-off    =     100.0000  Ry
     charge density cut-off    =     400.0000  Ry
     convergence threshold     =      1.0E-16
     beta                      =       0.7000
     number of iterations used =            4
     Exchange-correlation= PBE
                           (   1   4   3   4   0   0   0)

     celldm(1)=   13.39359  celldm(2)=    0.00000  celldm(3)=    0.00000
     celldm(4)=    0.00000  celldm(5)=    0.00000  celldm(6)=    0.00000

     crystal axes: (cart. coord. in units of alat)
               a(1) = (  0.8660  0.5000  0.0000 )
               a(2) = ( -0.8660  0.5000  0.0000 )
               a(3) = (  0.0000  0.0000  4.5612 )

     reciprocal axes: (cart. coord. in units 2 pi/alat)
               b(1) = (  0.5774  1.0000 -0.0000 )
               b(2) = ( -0.5774  1.0000  0.0000 )
               b(3) = (  0.0000 -0.0000  0.2192 )

     Atoms inside the unit cell:

     Cartesian axes

     site n.  atom      mass           positions (alat units)
        1  Nb     92.9064   tau(    1) = (    0.23439    0.00000   -0.46584  )
        2  Nb     92.9064   tau(    2) = (   -0.11720    0.20299   -0.46584  )
        3  Nb     92.9064   tau(    3) = (   -0.11720   -0.20299   -0.46584  )
        4  Br     79.9040   tau(    4) = (    0.00000    0.00000   -0.74668  )
        5  Br     79.9040   tau(    5) = (   -0.86123   -0.00000   -0.66862  )
        6  Br     79.9040   tau(    6) = (   -0.43541   -0.24585   -0.66862  )
        7  Br     79.9040   tau(    7) = (   -0.43541    0.24585   -0.66862  )
        8  Br     79.9040   tau(    8) = (    0.57735   -0.00000   -0.26470  )
        9  Br     79.9040   tau(    9) = (   -0.28679    0.00000   -0.21541  )
       10  Br     79.9040   tau(   10) = (    0.14339   -0.24836   -0.21541  )
       11  Br     79.9040   tau(   11) = (    0.14339    0.24836   -0.21541  )

     Computing dynamical matrix for
                    q = (   0.2886751  -0.5000000   0.0000000 )

      3 Sym.Ops. (with q -> -q+G )

     G cutoff = 1817.5838  (  40070 G-vectors)     FFT grid: ( 90, 90,400)

     number of k points=    26  Gaussian smearing, width (Ry)=  0.0037

     PseudoPot. # 1 for Nb read from file:
     /scratch-shared/mroesner/Nb3X8_cDFPT/pp/Nb_ONCV_PBE-1.2.upf
     MD5 check sum: 2c750ac0b6910ff4cf0ab5f6c4124a64
     Pseudo is Norm-conserving, Zval = 13.0
     Generated using ONCVPSP code by D. R. Hamann
     Using radial grid of  602 points,  6 beta functions with:
                l(1) =   0
                l(2) =   0
                l(3) =   1
                l(4) =   1
                l(5) =   2
                l(6) =   2

     PseudoPot. # 2 for Br read from file:
     /scratch-shared/mroesner/Nb3X8_cDFPT/pp/Br_ONCV_PBE-1.2.upf
     MD5 check sum: 5b50323dbf1c0ae0ed9e7f1e72c3f86c
     Pseudo is Norm-conserving, Zval =  7.0
     Generated using ONCVPSP code by D. R. Hamann
     Using radial grid of  602 points,  6 beta functions with:
                l(1) =   0
                l(2) =   0
                l(3) =   1
                l(4) =   1
                l(5) =   2
                l(6) =   2

     Mode symmetry, C_s (m)     point group:

     Atomic displacements:
     There are   33 irreducible representations

[...]

     Representation    33      1 modes -  To be done

     Message from routine init_vloc:
     Interpolation table for Vloc re-allocated

     Alpha used in Ewald sum =   2.8000

     Reading Grimme-D3 Hessian from file: ./out/Nb3Br8.hess

     Number of cells replicated along each semiaxis:    9   9   2
     Number of cells in the supercell:      1805
     Number of atoms in the supercell:     19855
     Hessian allocation dimension:   1965645

     Grimme-D3 Hessian read

     Computing dynamical matrix for q:     0.288675   -0.500000    0.000000

     Writing Hessian on file dynamical.false.dat

     Dynamical matrix computed

[...]

     Representation #  33 mode #  33

     Self-consistent Calculation

[...]

      thresh= 2.168E-09 alpha_mix =  0.700 |ddv_scf|^2 =  2.388E-18

     End of self-consistent calculation

     Convergence has been achieved

     Number of q in the star =    3
     List of q in the star:
          1   0.288675135  -0.500000000   0.000000000
          2  -0.577350269   0.000000000   0.000000000
          3   0.288675135   0.500000000   0.000000000

     Diagonalizing the dynamical matrix

     q = (    0.288675135  -0.500000000   0.000000000 )

     freq (    1) =       1.188589 [THz] =      39.647057 [cm-1]
     freq (    2) =       1.486708 [THz] =      49.591234 [cm-1]
     freq (    3) =       1.502383 [THz] =      50.114098 [cm-1]
     freq (    4) =       1.864130 [THz] =      62.180673 [cm-1]
     freq (    5) =       2.107946 [THz] =      70.313512 [cm-1]
     freq (    6) =       2.570348 [THz] =      85.737575 [cm-1]
     freq (    7) =       2.637231 [THz] =      87.968560 [cm-1]
     freq (    8) =       2.716739 [THz] =      90.620654 [cm-1]
     freq (    9) =       3.028756 [THz] =     101.028421 [cm-1]
     freq (   10) =       3.087364 [THz] =     102.983390 [cm-1]
     freq (   11) =       3.232047 [THz] =     107.809495 [cm-1]
     freq (   12) =       3.288644 [THz] =     109.697343 [cm-1]
     freq (   13) =       3.703201 [THz] =     123.525487 [cm-1]
     freq (   14) =       3.825310 [THz] =     127.598596 [cm-1]
     freq (   15) =       4.106817 [THz] =     136.988674 [cm-1]
     freq (   16) =       4.136716 [THz] =     137.985988 [cm-1]
     freq (   17) =       4.190094 [THz] =     139.766490 [cm-1]
     freq (   18) =       4.281412 [THz] =     142.812542 [cm-1]
     freq (   19) =       4.542153 [THz] =     151.509915 [cm-1]
     freq (   20) =       4.599290 [THz] =     153.415787 [cm-1]
     freq (   21) =       4.601136 [THz] =     153.477372 [cm-1]
     freq (   22) =       4.918733 [THz] =     164.071264 [cm-1]
     freq (   23) =       5.075484 [THz] =     169.299931 [cm-1]
     freq (   24) =       5.109005 [THz] =     170.418049 [cm-1]
     freq (   25) =       5.909415 [THz] =     197.116868 [cm-1]
     freq (   26) =       6.341115 [THz] =     211.516837 [cm-1]
     freq (   27) =       6.518033 [THz] =     217.418185 [cm-1]
     freq (   28) =       6.975410 [THz] =     232.674647 [cm-1]
     freq (   29) =       7.231403 [THz] =     241.213636 [cm-1]
     freq (   30) =       7.522237 [THz] =     250.914825 [cm-1]
     freq (   31) =       7.878373 [THz] =     262.794253 [cm-1]
     freq (   32) =       8.174025 [THz] =     272.656130 [cm-1]
     freq (   33) =       8.353544 [THz] =     278.644240 [cm-1]

     Mode symmetry, C_s (m)     point group:

     freq (   1-   1) =         39.6  [cm-1]   --> A'
     freq (   2-   2) =         49.6  [cm-1]   --> A''
     freq (   3-   3) =         50.1  [cm-1]   --> A'
     freq (   4-   4) =         62.2  [cm-1]   --> A''
     freq (   5-   5) =         70.3  [cm-1]   --> A''
     freq (   6-   6) =         85.7  [cm-1]   --> A'
     freq (   7-   7) =         88.0  [cm-1]   --> A'
     freq (   8-   8) =         90.6  [cm-1]   --> A''
     freq (   9-   9) =        101.0  [cm-1]   --> A'
     freq (  10-  10) =        103.0  [cm-1]   --> A'
     freq (  11-  11) =        107.8  [cm-1]   --> A''
     freq (  12-  12) =        109.7  [cm-1]   --> A'
     freq (  13-  13) =        123.5  [cm-1]   --> A''
     freq (  14-  14) =        127.6  [cm-1]   --> A'
     freq (  15-  15) =        137.0  [cm-1]   --> A''
     freq (  16-  16) =        138.0  [cm-1]   --> A'
     freq (  17-  17) =        139.8  [cm-1]   --> A''
     freq (  18-  18) =        142.8  [cm-1]   --> A'
     freq (  19-  19) =        151.5  [cm-1]   --> A'
     freq (  20-  20) =        153.4  [cm-1]   --> A''
     freq (  21-  21) =        153.5  [cm-1]   --> A'
     freq (  22-  22) =        164.1  [cm-1]   --> A'
     freq (  23-  23) =        169.3  [cm-1]   --> A''
     freq (  24-  24) =        170.4  [cm-1]   --> A'
     freq (  25-  25) =        197.1  [cm-1]   --> A''
     freq (  26-  26) =        211.5  [cm-1]   --> A'
     freq (  27-  27) =        217.4  [cm-1]   --> A''
     freq (  28-  28) =        232.7  [cm-1]   --> A''
     freq (  29-  29) =        241.2  [cm-1]   --> A'
     freq (  30-  30) =        250.9  [cm-1]   --> A'
     freq (  31-  31) =        262.8  [cm-1]   --> A''
     freq (  32-  32) =        272.7  [cm-1]   --> A'
     freq (  33-  33) =        278.6  [cm-1]   --> A'

     General routines

     Parallel routines

     INITIALIZATION:

     DYNAMICAL MATRIX:

                                        0.00s GPU  (    1346 calls)

                                        0.00s GPU  (      99 calls)

      General routines

      Additional routines
                                        0.00s GPU  (   65076 calls)
                                        0.00s GPU  (   65076 calls)

   This run was terminated on:   8: 5:20   8May2025

   JOB DONE.