     Program PWSCF v.7.3.1 starts on  7May2025 at 22:21:12

     Waiting for input...
     Reading input from standard input
Warning: card &CELL ignored
Warning: card / ignored
Warning: card &FCP ignored
Warning: card / ignored
Warning: card &RISM ignored
Warning: card / ignored

     Current dimensions of program PWSCF are:
     Max number of different atomic species (ntypx) = 10
     Max number of k-points (npk) =  40000
     Max angular momentum in pseudopotentials (lmaxx) =  4

     IMPORTANT: XC functional enforced from input :
     Exchange-correlation= PBE
                           (   1   4   3   4   0   0   0)
     Any further DFT definition will be discarded
     Please, verify this is what you really want

     Message from routine setup:
     using ibrav=0 with symmetry is DISCOURAGED, use correct ibrav instead

     K-points division:     npool     =      12
     R & G space division:  proc/nbgrp/npool/nimage =      32
     Subspace diagonalization in iterative solution of the eigenvalue problem:
     a serial algorithm will be used

     Message from routine divide_et_impera:
     suboptimal parallelization: some nodes have no k-points

     Using Slab Decomposition

     bravais-lattice index     =            0
     lattice parameter (alat)  =      13.3936  a.u.
     unit-cell volume          =    9490.8392 (a.u.)^3
     number of atoms/cell      =           11
     number of atomic types    =            2
     number of electrons       =        95.00
     number of Kohn-Sham states=           58
     kinetic-energy cutoff     =     100.0000  Ry
     charge density cutoff     =     400.0000  Ry
     scf convergence threshold =      1.0E-12
     mixing beta               =       0.7000
     number of iterations used =            8  plain     mixing
     Exchange-correlation= PBE
                           (   1   4   3   4   0   0   0)

     celldm(1)=  13.393593  celldm(2)=   0.000000  celldm(3)=   0.000000
     celldm(4)=   0.000000  celldm(5)=   0.000000  celldm(6)=   0.000000

     crystal axes: (cart. coord. in units of alat)
               a(1) = (   0.866025   0.500000   0.000000 )
               a(2) = (  -0.866025   0.500000   0.000000 )
               a(3) = (   0.000000   0.000000   4.561238 )

     reciprocal axes: (cart. coord. in units 2 pi/alat)
               b(1) = (  0.577350  1.000000 -0.000000 )
               b(2) = ( -0.577350  1.000000  0.000000 )
               b(3) = (  0.000000 -0.000000  0.219239 )

     PseudoPot. # 1 for Nb read from file:
     /scratch-shared/mroesner/Nb3X8_cDFPT/pp/Nb_ONCV_PBE-1.2.upf
     MD5 check sum: 2c750ac0b6910ff4cf0ab5f6c4124a64
     Pseudo is Norm-conserving, Zval = 13.0
     Generated using ONCVPSP code by D. R. Hamann
     Using radial grid of  602 points,  6 beta functions with:
                l(1) =   0
                l(2) =   0
                l(3) =   1
                l(4) =   1
                l(5) =   2
                l(6) =   2

     PseudoPot. # 2 for Br read from file:
     /scratch-shared/mroesner/Nb3X8_cDFPT/pp/Br_ONCV_PBE-1.2.upf
     MD5 check sum: 5b50323dbf1c0ae0ed9e7f1e72c3f86c
     Pseudo is Norm-conserving, Zval =  7.0
     Generated using ONCVPSP code by D. R. Hamann
     Using radial grid of  602 points,  6 beta functions with:
                l(1) =   0
                l(2) =   0
                l(3) =   1
                l(4) =   1
                l(5) =   2
                l(6) =   2

     atomic species   valence    mass     pseudopotential
     Nb               13.00    92.90637     Nb( 1.00)
     Br                7.00    79.90400     Br( 1.00)

      6 Sym. Ops. (no inversion) found

                                    s                        frac. trans.

      isym =  1     identity

 cryst.   s( 1) = (     1          0          0      )
                  (     0          1          0      )
                  (     0          0          1      )

 cart.    s( 1) = (  1.0000000 -0.0000000  0.0000000 )
                  (  0.0000000  1.0000000  0.0000000 )
                  (  0.0000000  0.0000000  1.0000000 )

      isym =  2     120 deg rotation - cryst. axis [0,0,1]

[...]

      isym =  3     120 deg rotation - cryst. axis [0,0,-1]

[...]

      isym =  4     inv. 180 deg rotation - cart. axis [0,1,0]

[...]

      isym =  5     inv. 180 deg rotation - cryst. axis [1,-1,0]

[...]

      isym =  6     inv. 180 deg rotation - cryst. axis [2,1,0]

 cryst.   s( 6) = (    -1          0          0      )
                  (     1          1          0      )
                  (     0          0          1      )

 cart.    s( 6) = ( -0.5000000 -0.8660254  0.0000000 )
                  ( -0.8660254  0.5000000  0.0000000 )
                  (  0.0000000  0.0000000  1.0000000 )

   Cartesian axes

     site n.     atom                  positions (alat units)
         1        Nb     tau(   1) = (   0.2343915   0.0000000  -0.4658352  )
         2        Nb     tau(   2) = (  -0.1171958   0.2029890  -0.4658352  )
         3        Nb     tau(   3) = (  -0.1171958  -0.2029890  -0.4658352  )
         4        Br     tau(   4) = (   0.0000000   0.0000000  -0.7466792  )
         5        Br     tau(   5) = (  -0.8612291  -0.0000000  -0.6686237  )
         6        Br     tau(   6) = (  -0.4354109  -0.2458463  -0.6686237  )
         7        Br     tau(   7) = (  -0.4354109   0.2458463  -0.6686237  )
         8        Br     tau(   8) = (   0.5773503  -0.0000000  -0.2647046  )
         9        Br     tau(   9) = (  -0.2867850   0.0000000  -0.2154095  )
        10        Br     tau(  10) = (   0.1433925  -0.2483631  -0.2154095  )
        11        Br     tau(  11) = (   0.1433925   0.2483631  -0.2154095  )

     DFT-D3 Dispersion Correction (no 3-body):
       Reference C6 values for interpolation:

         atom   Coordination number   C6
         Br         0.000           334.26
         Br         0.997           338.48
         Nb         0.000          2950.50
         Nb         1.954          1161.16
         Nb         2.922           857.79

       Values used:

         atom   Coordination number  R0_AB[au]  C6      C8
         Nb         8.071            3.647    857.79 111659.18
         Nb         8.071            3.647    857.79 111659.18
         Nb         8.071            3.647    857.79 111659.18
         Br         3.481            3.181    338.47  21401.43
         Br         2.747            3.181    338.47  21401.43
         Br         2.747            3.181    338.47  21401.43
         Br         2.747            3.181    338.47  21401.43
         Br         3.632            3.181    338.47  21401.43
         Br         2.682            3.181    338.47  21401.43
         Br         2.682            3.181    338.47  21401.43
         Br         2.682            3.181    338.47  21401.43

         Molecular C6 ( Ry / a.u.^6 ) =     54845.00

   Crystallographic axes

     site n.     atom                  positions (cryst. coord.)
         1        Nb     tau(   1) = (  0.1353260 -0.1353260 -0.1021291  )
         2        Nb     tau(   2) = (  0.1353260  0.2706520 -0.1021291  )
         3        Nb     tau(   3) = ( -0.2706520 -0.1353260 -0.1021291  )
         4        Br     tau(   4) = (  0.0000000  0.0000000 -0.1637010  )
         5        Br     tau(   5) = ( -0.4972308  0.4972308 -0.1465882  )
         6        Br     tau(   6) = ( -0.4972308  0.0055383 -0.1465882  )
         7        Br     tau(   7) = ( -0.0055383  0.4972308 -0.1465882  )
         8        Br     tau(   8) = (  0.3333333 -0.3333333 -0.0580335  )
         9        Br     tau(   9) = ( -0.1655754  0.1655754 -0.0472261  )
        10        Br     tau(  10) = ( -0.1655754 -0.3311508 -0.0472261  )
        11        Br     tau(  11) = (  0.3311508  0.1655754 -0.0472261  )

     number of k points=     7  Gaussian smearing, width (Ry)=  0.0037
                       cart. coord. in units 2pi/alat
        k(    1) = (   0.0000000   0.0000000   0.0000000), wk =   0.0555556
        k(    2) = (  -0.0962250   0.1666667   0.0000000), wk =   0.3333333
        k(    3) = (  -0.1924501   0.3333333   0.0000000), wk =   0.3333333
        k(    4) = (   0.2886751  -0.5000000   0.0000000), wk =   0.1666667
        k(    5) = (  -0.0000000   0.3333333   0.0000000), wk =   0.3333333
        k(    6) = (  -0.0962250   0.5000000   0.0000000), wk =   0.6666667
        k(    7) = (  -0.0000000   0.6666667   0.0000000), wk =   0.1111111

                       cryst. coord.
        k(    1) = (   0.0000000   0.0000000   0.0000000), wk =   0.0555556
        k(    2) = (  -0.0000000   0.1666667   0.0000000), wk =   0.3333333
        k(    3) = (  -0.0000000   0.3333333   0.0000000), wk =   0.3333333
        k(    4) = (   0.0000000  -0.5000000   0.0000000), wk =   0.1666667
        k(    5) = (   0.1666667   0.1666667   0.0000000), wk =   0.3333333
        k(    6) = (   0.1666667   0.3333333   0.0000000), wk =   0.6666667
        k(    7) = (   0.3333333   0.3333333   0.0000000), wk =   0.1111111

     Initial potential from superposition of free atoms

     starting charge      94.5747, renormalised to      95.0000

     negative rho (up, down):  1.652E-03 0.000E+00
     Starting wfcs are random

     Self-consistent Calculation

     iteration #  1     ecut=   100.00 Ry     beta= 0.70
     Davidson diagonalization with overlap

     ethr =  1.00E-02,  avg # of iterations = 19.7

     Threshold (ethr) on eigenvalues was too large:
     Diagonalizing with lowered threshold

     Davidson diagonalization with overlap

     c_bands:  3 eigenvalues not converged
     ethr =  4.44E-04,  avg # of iterations = 18.4

     negative rho (up, down):  1.651E-04 0.000E+00

     total energy              =    -558.94959736 Ry
     estimated scf accuracy    <       0.31262076 Ry

[...]

     negative rho (up, down):  2.180E-08 0.000E+00

[...]

     total energy              =    -559.07995850 Ry
     estimated scf accuracy    <          5.6E-12 Ry

     iteration # 17     ecut=   100.00 Ry     beta= 0.70
     Davidson diagonalization with overlap

     ethr =  1.00E-13,  avg # of iterations =  1.0

     End of self-consistent calculation

          k = 0.0000 0.0000 0.0000 (160347 PWs)   bands (ev):

   -57.8279 -57.7535 -57.7535 -34.1737 -34.0143 -34.0108 -34.0108 -33.9206
   -33.9206 -33.7040 -33.5549 -33.5549 -18.9527 -18.4190 -17.8600 -17.8114
   -17.8114 -17.6714 -17.3182 -17.3182  -8.4679  -8.4679  -8.1406  -7.9175
    -7.5717  -7.5717  -7.3336  -7.2905  -6.8252  -6.8252  -6.1852  -5.9994
    -5.9994  -5.7819  -5.7205  -5.7205  -5.3314  -5.3314  -5.2993  -5.2049
    -4.5409  -4.5409  -3.9374  -3.9374  -3.5625  -2.9864  -2.9864  -1.9268
    -1.0637  -1.0637  -0.4272  -0.2471  -0.2471   0.1458   0.2097   0.2097
     0.4028   0.4028

     occupation numbers
     1.0000   1.0000   1.0000   1.0000   1.0000   1.0000   1.0000   1.0000
     1.0000   1.0000   1.0000   1.0000   1.0000   1.0000   1.0000   1.0000
     1.0000   1.0000   1.0000   1.0000   1.0000   1.0000   1.0000   1.0000
     1.0000   1.0000   1.0000   1.0000   1.0000   1.0000   1.0000   1.0000
     1.0000   1.0000   1.0000   1.0000   1.0000   1.0000   1.0000   1.0000
     1.0000   1.0000   1.0000   1.0000   1.0000   1.0000   1.0000   0.1321
     0.0000   0.0000   0.0000   0.0000   0.0000   0.0000   0.0000   0.0000
     0.0000   0.0000

          k =-0.0962 0.1667 0.0000 (160353 PWs)   bands (ev):

[...]

          k = 0.2887-0.5000 0.0000 (160226 PWs)   bands (ev):

[...]

          k =-0.0000 0.6667 0.0000 (160113 PWs)   bands (ev):

   -57.8274 -57.7541 -57.7535 -34.1601 -34.0098 -34.0050 -34.0035 -33.9231
   -33.9224 -33.7113 -33.5713 -33.5612 -18.8812 -18.1544 -18.0679 -18.0102
   -17.7438 -17.5817 -17.4900 -17.3036  -8.0815  -7.7643  -7.7389  -7.6086
    -7.3650  -7.1547  -7.0817  -7.0438  -6.7792  -6.7158  -6.7115  -6.4854
    -6.3694  -6.2805  -6.2788  -5.7235  -5.6557  -5.4838  -5.3897  -5.2728
    -4.9221  -4.8350  -4.7060  -4.4565  -3.6989  -3.0606  -2.9611  -1.9375
    -1.1685  -0.7966  -0.4742  -0.3820  -0.3666  -0.3396  -0.2475   0.1843
     0.5425   0.5723

     occupation numbers
     1.0000   1.0000   1.0000   1.0000   1.0000   1.0000   1.0000   1.0000
     1.0000   1.0000   1.0000   1.0000   1.0000   1.0000   1.0000   1.0000
     1.0000   1.0000   1.0000   1.0000   1.0000   1.0000   1.0000   1.0000
     1.0000   1.0000   1.0000   1.0000   1.0000   1.0000   1.0000   1.0000
     1.0000   1.0000   1.0000   1.0000   1.0000   1.0000   1.0000   1.0000
     1.0000   1.0000   1.0000   1.0000   1.0000   1.0000   1.0000   0.2075
     0.0000   0.0000   0.0000   0.0000   0.0000   0.0000   0.0000   0.0000
     0.0000   0.0000

     the Fermi energy is    -1.9663 ev

!    total energy              =    -559.07995850 Ry
     estimated scf accuracy    <          7.8E-13 Ry
     smearing contrib. (-TS)   =      -0.00164883 Ry
     internal energy E=F+TS    =    -559.07830966 Ry

     The total energy is F=E-TS. E is the sum of the following terms:
     one-electron contribution =   -5588.14984826 Ry
     hartree contribution      =    2790.39192865 Ry
     xc contribution           =     -82.90877981 Ry
     ewald contribution        =    2321.72310344 Ry
     DFT-D3 Dispersion         =      -0.13471368 Ry

     convergence has been achieved in  17 iterations

     Forces acting on atoms (cartesian axes, Ry/au):

     atom    1 type  1   force =    -0.00025876   -0.00000000    0.00025916
     atom    2 type  1   force =     0.00012938   -0.00022409    0.00025916
     atom    3 type  1   force =     0.00012938    0.00022409    0.00025916
     atom    4 type  2   force =     0.00000000    0.00000000   -0.00003509
     atom    5 type  2   force =     0.00001618    0.00000000   -0.00015479
     atom    6 type  2   force =    -0.00000809    0.00001402   -0.00015479
     atom    7 type  2   force =    -0.00000809   -0.00001402   -0.00015479
     atom    8 type  2   force =     0.00000000    0.00000000    0.00001002
     atom    9 type  2   force =    -0.00012335    0.00000000   -0.00009601
     atom   10 type  2   force =     0.00006168   -0.00010683   -0.00009601
     atom   11 type  2   force =     0.00006168    0.00010683   -0.00009601
     The non-local contrib.  to forces
     atom    1 type  1   force =    -0.20543497    0.00000000   -0.03707515
     atom    2 type  1   force =     0.10271749   -0.17791190   -0.03707515
     atom    3 type  1   force =     0.10271749    0.17791190   -0.03707515
     atom    4 type  2   force =     0.00000000    0.00000000    0.23111506
     atom    5 type  2   force =    -0.08891591    0.00000000    0.13740331
     atom    6 type  2   force =     0.04445796   -0.07700344    0.13740331
     atom    7 type  2   force =     0.04445796    0.07700344    0.13740331
     atom    8 type  2   force =    -0.00000000   -0.00000000   -0.15900550
     atom    9 type  2   force =     0.10778478   -0.00000000   -0.16036927
     atom   10 type  2   force =    -0.05389239    0.09334436   -0.16036927
     atom   11 type  2   force =    -0.05389239   -0.09334436   -0.16036927
     The ionic contribution  to forces
     atom    1 type  1   force =     9.45401642    0.00000000   -1.10996609
     atom    2 type  1   force =    -4.72700821    8.18741839   -1.10996609
     atom    3 type  1   force =    -4.72700821   -8.18741839   -1.10996609
     atom    4 type  2   force =     0.00000000   -0.00000000  -39.06654368
     atom    5 type  2   force =     2.92935145   -0.00000000  -26.60565361
     atom    6 type  2   force =    -1.46467573    2.53689277  -26.60565361
     atom    7 type  2   force =    -1.46467573   -2.53689277  -26.60565361
     atom    8 type  2   force =     0.00000000   -0.00000000   26.48300410
     atom    9 type  2   force =    -5.77850958    0.00000000   31.91013289
     atom   10 type  2   force =     2.88925479   -5.00433609   31.91013290
     atom   11 type  2   force =     2.88925479    5.00433609   31.91013290
     The local contribution  to forces
     atom    1 type  1   force =    -9.24722265   -0.00000000    1.14724797
     atom    2 type  1   force =     4.62361126   -8.00832970    1.14724797
     atom    3 type  1   force =     4.62361126    8.00832970    1.14724797
     atom    4 type  2   force =    -0.00000000    0.00000000   38.83434144
     atom    5 type  2   force =    -2.84115330    0.00000000   26.46700965
     atom    6 type  2   force =     1.42057665   -2.46051093   26.46700965
     atom    7 type  2   force =     1.42057665    2.46051093   26.46700965
     atom    8 type  2   force =     0.00000000   -0.00000000  -26.32459444
     atom    9 type  2   force =     5.67126233    0.00000000  -31.74816474
     atom   10 type  2   force =    -2.83563115    4.91145724  -31.74816475
     atom   11 type  2   force =    -2.83563115   -4.91145724  -31.74816475
     The core correction contribution to forces
     atom    1 type  1   force =     0.00000000    0.00000000    0.00000000
     atom    2 type  1   force =     0.00000000    0.00000000    0.00000000
     atom    3 type  1   force =     0.00000000    0.00000000    0.00000000
     atom    4 type  2   force =     0.00000000    0.00000000    0.00000000
     atom    5 type  2   force =     0.00000000    0.00000000    0.00000000
     atom    6 type  2   force =     0.00000000    0.00000000    0.00000000
     atom    7 type  2   force =     0.00000000    0.00000000    0.00000000
     atom    8 type  2   force =     0.00000000    0.00000000    0.00000000
     atom    9 type  2   force =     0.00000000    0.00000000    0.00000000
     atom   10 type  2   force =     0.00000000    0.00000000    0.00000000
     atom   11 type  2   force =     0.00000000    0.00000000    0.00000000
     The Hubbard contrib.    to forces
     atom    1 type  1   force =     0.00000000    0.00000000    0.00000000
     atom    2 type  1   force =     0.00000000    0.00000000    0.00000000
     atom    3 type  1   force =     0.00000000    0.00000000    0.00000000
     atom    4 type  2   force =     0.00000000    0.00000000    0.00000000
     atom    5 type  2   force =     0.00000000    0.00000000    0.00000000
     atom    6 type  2   force =     0.00000000    0.00000000    0.00000000
     atom    7 type  2   force =     0.00000000    0.00000000    0.00000000
     atom    8 type  2   force =     0.00000000    0.00000000    0.00000000
     atom    9 type  2   force =     0.00000000    0.00000000    0.00000000
     atom   10 type  2   force =     0.00000000    0.00000000    0.00000000
     atom   11 type  2   force =     0.00000000    0.00000000    0.00000000
     The SCF correction term to forces
     atom    1 type  1   force =     0.00000102   -0.00000000    0.00000032
     atom    2 type  1   force =    -0.00000051    0.00000088    0.00000032
     atom    3 type  1   force =    -0.00000051   -0.00000088    0.00000032
     atom    4 type  2   force =     0.00000000    0.00000000   -0.00000040
     atom    5 type  2   force =    -0.00000020   -0.00000000    0.00000007
     atom    6 type  2   force =     0.00000010   -0.00000017    0.00000007
     atom    7 type  2   force =     0.00000010    0.00000017    0.00000007
     atom    8 type  2   force =     0.00000000    0.00000000   -0.00000053
     atom    9 type  2   force =    -0.00000017   -0.00000000   -0.00000035
     atom   10 type  2   force =     0.00000009   -0.00000015   -0.00000035
     atom   11 type  2   force =     0.00000009    0.00000015   -0.00000035

     DFT-D3 dispersion contribution to forces:
     atom    1 type  1   force =    -0.00161861   -0.00000000    0.00005312
     atom    2 type  1   force =     0.00080931   -0.00140176    0.00005312
     atom    3 type  1   force =     0.00080931    0.00140176    0.00005312
     atom    4 type  2   force =     0.00000000    0.00000000    0.00105349
     atom    5 type  2   force =     0.00073414   -0.00000000    0.00108680
     atom    6 type  2   force =    -0.00036707    0.00063578    0.00108680
     atom    7 type  2   force =    -0.00036707   -0.00063578    0.00108680
     atom    8 type  2   force =    -0.00000000   -0.00000000    0.00060739
     atom    9 type  2   force =    -0.00066070    0.00000000   -0.00169354
     atom   10 type  2   force =     0.00033035   -0.00057218   -0.00169354
     atom   11 type  2   force =     0.00033035    0.00057218   -0.00169354

     Total force =     0.000741     Total SCF correction =     0.000002

     DFT-D3 dispersion Force =     0.004942

     Computing stress (Cartesian axis) and pressure

          total   stress  (Ry/bohr**3)                   (kbar)     P=        0.54
   0.00000561  -0.00000000   0.00000000            0.82       -0.00        0.00
  -0.00000000   0.00000561   0.00000000           -0.00        0.82        0.00
   0.00000000   0.00000000  -0.00000021            0.00        0.00       -0.03

     kinetic stress (kbar)   1817.52      0.00      0.00
                                0.00   1817.52      0.00
                                0.00      0.00   1795.34

     local   stress (kbar) -84827.87      0.00     -0.00
                                0.00 -84827.87     -0.00
                               -0.00     -0.00  83297.10

     nonloc. stress (kbar)    965.36      0.00     -0.00
                               -0.00    965.36     -0.00
                               -0.00      0.00    969.64

     hartree stress (kbar)  42040.22      0.00     -0.00
                                0.00  42040.22      0.00
                               -0.00      0.00 -40830.23

     exc-cor stress (kbar)   -400.60     -0.00     -0.00
                               -0.00   -400.60      0.00
                               -0.00      0.00   -401.70

     corecor stress (kbar)      0.00      0.00      0.00
                                0.00      0.00      0.00
                                0.00      0.00      0.00

     ewald   stress (kbar)  40407.87     -0.00      0.00
                               -0.00  40407.87      0.00
                                0.00      0.00 -44829.74

     hubbard stress (kbar)      0.00      0.00      0.00
                                0.00      0.00      0.00
                                0.00      0.00      0.00

     DFT-D   stress (kbar)     -1.68      0.00      0.00
                                0.00     -1.68     -0.00
                                0.00     -0.00     -0.44

     XDM     stress (kbar)      0.00      0.00      0.00
                                0.00      0.00      0.00
                                0.00      0.00      0.00

     dft-nl  stress (kbar)      0.00      0.00      0.00
                                0.00      0.00      0.00
                                0.00      0.00      0.00

     TS-vdW  stress (kbar)      0.00      0.00      0.00
                                0.00      0.00      0.00
                                0.00      0.00      0.00

     MDB     stress (kbar)      0.00      0.00      0.00
                                0.00      0.00      0.00
                                0.00      0.00      0.00

     3D-RISM stress (kbar)      0.00      0.00      0.00
                                0.00      0.00      0.00
                                0.00      0.00      0.00

     Writing all to output data dir ./out/Nb3Br8.save/ :
     XML data file, charge density, pseudopotentials, collected wavefunctions

     General routines

     Parallel routines

   This run was terminated on:  22:22:28   7May2025

   JOB DONE.