     Program PWSCF v.7.3.1 starts on  5Jul2025 at 18:14:39

     Waiting for input...
     Reading input from standard input
Warning: card &FCP ignored
Warning: card / ignored
Warning: card &RISM ignored
Warning: card / ignored

     Current dimensions of program PWSCF are:
     Max number of different atomic species (ntypx) = 10
     Max number of k-points (npk) =  40000
     Max angular momentum in pseudopotentials (lmaxx) =  4

     IMPORTANT: XC functional enforced from input :
     Exchange-correlation= PBE
                           (   1   4   3   4   0   0   0)
     Any further DFT definition will be discarded
     Please, verify this is what you really want

     Message from routine setup:
     using ibrav=0 with symmetry is DISCOURAGED, use correct ibrav instead

     K-points division:     npool     =      16
     R & G space division:  proc/nbgrp/npool/nimage =      24
     Subspace diagonalization in iterative solution of the eigenvalue problem:
     a serial algorithm will be used

     Using Slab Decomposition

     bravais-lattice index     =            0
     lattice parameter (alat)  =      13.3936  a.u.
     unit-cell volume          =    3796.3357 (a.u.)^3
     number of atoms/cell      =           22
     number of atomic types    =            2
     number of electrons       =       190.00
     number of Kohn-Sham states=          114
     kinetic-energy cutoff     =     100.0000  Ry
     charge density cutoff     =     400.0000  Ry
     scf convergence threshold =      1.0E-12
     mixing beta               =       0.7000
     number of iterations used =            8  plain     mixing
     energy convergence thresh.=      1.0E-04
     force convergence thresh. =      1.0E-06
     press convergence thresh. =      5.0E-01
     Exchange-correlation= PBE
                           (   1   4   3   4   0   0   0)
     nstep                     =           50

     celldm(1)=  13.393593  celldm(2)=   0.000000  celldm(3)=   0.000000
     celldm(4)=   0.000000  celldm(5)=   0.000000  celldm(6)=   0.000000

     crystal axes: (cart. coord. in units of alat)
               a(1) = (   0.866025   0.500000   0.000000 )
               a(2) = (  -0.866025   0.500000   0.000000 )
               a(3) = (  -0.577350   0.000000   1.824495 )

     reciprocal axes: (cart. coord. in units 2 pi/alat)
               b(1) = (  0.577350  1.000000  0.182699 )
               b(2) = ( -0.577350  1.000000 -0.182699 )
               b(3) = (  0.000000 -0.000000  0.548097 )

     PseudoPot. # 1 for Nb read from file:
     /scratch-shared/mroesner/Nb3X8_cDFPT/pp/Nb_ONCV_PBE-1.2.upf
     MD5 check sum: 2c750ac0b6910ff4cf0ab5f6c4124a64
     Pseudo is Norm-conserving, Zval = 13.0
     Generated using ONCVPSP code by D. R. Hamann
     Using radial grid of  602 points,  6 beta functions with:
                l(1) =   0
                l(2) =   0
                l(3) =   1
                l(4) =   1
                l(5) =   2
                l(6) =   2

     PseudoPot. # 2 for Br read from file:
     /scratch-shared/mroesner/Nb3X8_cDFPT/pp/Br_ONCV_PBE-1.2.upf
     MD5 check sum: 5b50323dbf1c0ae0ed9e7f1e72c3f86c
     Pseudo is Norm-conserving, Zval =  7.0
     Generated using ONCVPSP code by D. R. Hamann
     Using radial grid of  602 points,  6 beta functions with:
                l(1) =   0
                l(2) =   0
                l(3) =   1
                l(4) =   1
                l(5) =   2
                l(6) =   2

     atomic species   valence    mass     pseudopotential
     Nb               13.00    92.90637     Nb( 1.00)
     Br                7.00    79.90400     Br( 1.00)

     12 Sym. Ops., with inversion, found

                                    s                        frac. trans.

      isym =  1     identity

 cryst.   s( 1) = (     1          0          0      )
                  (     0          1          0      )
                  (     0          0          1      )

 cart.    s( 1) = (  1.0000000  0.0000000  0.0000000 )
                  (  0.0000000  1.0000000  0.0000000 )
                  (  0.0000000  0.0000000  1.0000000 )

      isym =  2     180 deg rotation - cart. axis [0,1,0]

[...]

      isym =  3     120 deg rotation - cryst. axis [0,0,1]

[...]

      isym =  6     180 deg rotation - cryst. axis [2,1,0]

[...]

      isym =  7     inversion

[...]

      isym =  8     inv. 180 deg rotation - cart. axis [0,1,0]

[...]

      isym =  9     inv. 120 deg rotation - cryst. axis [0,0,1]

 cryst.   s( 9) = (     0         -1          0      )
                  (     1          1          0      )
                  (     0          1         -1      )

 cart.    s( 9) = (  0.5000000  0.8660254 -0.0000000 )
                  ( -0.8660254  0.5000000 -0.0000000 )
                  (  0.0000000  0.0000000 -1.0000000 )

[...]

 cryst.   s(10) = (     1          1          0      )
                  (    -1          0          0      )
                  (    -1          0         -1      )

 cart.    s(10) = (  0.5000000 -0.8660254  0.0000000 )
                  (  0.8660254  0.5000000  0.0000000 )
                  (  0.0000000  0.0000000 -1.0000000 )

[...]

      isym = 12     inv. 180 deg rotation - cryst. axis [2,1,0]

 cryst.   s(12) = (    -1          0          0      )
                  (     1          1          0      )
                  (     1          0          1      )

 cart.    s(12) = ( -0.5000000 -0.8660254 -0.0000000 )
                  ( -0.8660254  0.5000000 -0.0000000 )
                  (  0.0000000  0.0000000  1.0000000 )

   Cartesian axes

     site n.     atom                  positions (alat units)
         1        Nb     tau(   1) = (   0.2336976  -0.0000000  -0.4610860  )
         2        Nb     tau(   2) = (  -0.1168488   0.2023881  -0.4610860  )
         3        Nb     tau(   3) = (  -0.1168488  -0.2023881  -0.4610860  )
         4        Nb     tau(   4) = (  -0.2336976   0.0000000   0.4610860  )
         5        Nb     tau(   5) = (   0.1168488  -0.2023881   0.4610860  )
         6        Nb     tau(   6) = (   0.1168488   0.2023881   0.4610860  )
         7        Br     tau(   7) = (  -0.0000000   0.0000000  -0.7391137  )
         8        Br     tau(   8) = (   0.8717013  -0.0000000  -0.6642212  )
         9        Br     tau(   9) = (   0.4301747   0.2549155  -0.6642212  )
        10        Br     tau(  10) = (   0.4301747  -0.2549155  -0.6642212  )
        11        Br     tau(  11) = (   0.5773503   0.0000000  -0.2610780  )
        12        Br     tau(  12) = (  -0.2882406   0.0000000  -0.2145794  )
        13        Br     tau(  13) = (   0.1441203  -0.2496236  -0.2145794  )
        14        Br     tau(  14) = (   0.1441203   0.2496236  -0.2145794  )
        15        Br     tau(  15) = (   0.2882406  -0.0000000   0.2145794  )
        16        Br     tau(  16) = (  -0.1441203   0.2496236   0.2145794  )
        17        Br     tau(  17) = (  -0.1441203  -0.2496236   0.2145794  )
        18        Br     tau(  18) = (  -0.5773503   0.0000000   0.2610780  )
        19        Br     tau(  19) = (  -0.8717013   0.0000000   0.6642212  )
        20        Br     tau(  20) = (  -0.4301747  -0.2549155   0.6642212  )
        21        Br     tau(  21) = (  -0.4301747   0.2549155   0.6642212  )
        22        Br     tau(  22) = (  -0.0000000   0.0000000   0.7391137  )

     DFT-D3 Dispersion Correction (no 3-body):
       Reference C6 values for interpolation:

         atom   Coordination number   C6
         Br         0.000           334.26
         Br         0.997           338.48
         Nb         0.000          2950.50
         Nb         1.954          1161.16
         Nb         2.922           857.79

       Values used:

         atom   Coordination number  R0_AB[au]  C6      C8
         Nb         8.106            3.647    857.79 111659.18
         Nb         8.106            3.647    857.79 111659.18
         Nb         8.106            3.647    857.79 111659.18
         Nb         8.106            3.647    857.79 111659.18
         Nb         8.106            3.647    857.79 111659.18
         Nb         8.106            3.647    857.79 111659.18
         Br         3.724            3.181    338.47  21401.43
         Br         2.877            3.181    338.47  21401.43
         Br         2.877            3.181    338.47  21401.43
         Br         2.877            3.181    338.47  21401.43
         Br         3.724            3.181    338.47  21401.43
         Br         2.864            3.181    338.47  21401.43
         Br         2.864            3.181    338.47  21401.43
         Br         2.864            3.181    338.47  21401.43
         Br         2.864            3.181    338.47  21401.43
         Br         2.864            3.181    338.47  21401.43
         Br         2.864            3.181    338.47  21401.43
         Br         3.724            3.181    338.47  21401.43
         Br         2.877            3.181    338.47  21401.43
         Br         2.877            3.181    338.47  21401.43
         Br         2.877            3.181    338.47  21401.43
         Br         3.724            3.181    338.47  21401.43

         Molecular C6 ( Ry / a.u.^6 ) =    219379.98

   Crystallographic axes

     site n.     atom                  positions (cryst. coord.)
         1        Nb     tau(   1) = (  0.0506855 -0.0506855 -0.2527198  )
         2        Nb     tau(   2) = (  0.0506855  0.3540907 -0.2527198  )
         3        Nb     tau(   3) = ( -0.3540907 -0.0506855 -0.2527198  )
         4        Nb     tau(   4) = ( -0.0506855  0.0506855  0.2527198  )
         5        Nb     tau(   5) = ( -0.0506855 -0.3540907  0.2527198  )
         6        Nb     tau(   6) = (  0.3540907  0.0506855  0.2527198  )
         7        Br     tau(   7) = ( -0.1350353  0.1350353 -0.4051059  )
         8        Br     tau(   8) = (  0.3819245 -0.3819245 -0.3640575  )
         9        Br     tau(   9) = (  0.3819245  0.1279065 -0.3640575  )
        10        Br     tau(  10) = ( -0.1279065 -0.3819245 -0.3640575  )
        11        Br     tau(  11) = (  0.2856347 -0.2856347 -0.1430960  )
        12        Br     tau(  12) = ( -0.2056192  0.2056192 -0.1176103  )
        13        Br     tau(  13) = ( -0.2056192 -0.2936281 -0.1176103  )
        14        Br     tau(  14) = (  0.2936281  0.2056192 -0.1176103  )
        15        Br     tau(  15) = (  0.2056192 -0.2056192  0.1176103  )
        16        Br     tau(  16) = (  0.2056192  0.2936281  0.1176103  )
        17        Br     tau(  17) = ( -0.2936281 -0.2056192  0.1176103  )
        18        Br     tau(  18) = ( -0.2856347  0.2856347  0.1430960  )
        19        Br     tau(  19) = ( -0.3819245  0.3819245  0.3640575  )
        20        Br     tau(  20) = ( -0.3819245 -0.1279065  0.3640575  )
        21        Br     tau(  21) = (  0.1279065  0.3819245  0.3640575  )
        22        Br     tau(  22) = (  0.1350353 -0.1350353  0.4051059  )

     number of k points=    32  Marzari-Vanderbilt smearing, width (Ry)=  0.0037
                       cart. coord. in units 2pi/alat
        k(    1) = (   0.0000000   0.0000000   0.0000000), wk =   0.0092593
[...]
     atom   12 type  2   force =     0.11282893   -0.00000000   -0.15952368
     atom   13 type  2   force =    -0.05641446    0.09771272   -0.15952368
     atom   14 type  2   force =    -0.05641446   -0.09771272   -0.15952368
     atom   15 type  2   force =    -0.11282893    0.00000000    0.15952368
     atom   16 type  2   force =     0.05641446   -0.09771272    0.15952368
     atom   17 type  2   force =     0.05641446    0.09771272    0.15952368
     atom   18 type  2   force =     0.00000000    0.00000000    0.15241168
     atom   19 type  2   force =     0.09409568   -0.00000000   -0.13532186
     atom   20 type  2   force =    -0.04704784    0.08148925   -0.13532186
     atom   21 type  2   force =    -0.04704784   -0.08148925   -0.13532186
     atom   22 type  2   force =    -0.00000000   -0.00000000   -0.24829209
     The ionic contribution  to forces
     atom    1 type  1   force =     9.67771214    0.00000000   -0.15342467
     atom    2 type  1   force =    -4.83885607    8.38114457   -0.15342467
     atom    3 type  1   force =    -4.83885607   -8.38114457   -0.15342467
     atom    4 type  1   force =    -9.67771214    0.00000000    0.15342467
     atom    5 type  1   force =     4.83885607   -8.38114457    0.15342467
     atom    6 type  1   force =     4.83885607    8.38114457    0.15342467
     atom    7 type  2   force =    -0.00000000    0.00000000  -12.98081520
     atom    8 type  2   force =     3.32638915    0.00000000   -7.00235176
     atom    9 type  2   force =    -1.66319458    2.88073751   -7.00235176
     atom   10 type  2   force =    -1.66319458   -2.88073751   -7.00235176
     atom   11 type  2   force =     0.00000000    0.00000000    8.39314364
     atom   12 type  2   force =    -6.20878063    0.00000000    9.11999557
     atom   13 type  2   force =     3.10439031   -5.37696175    9.11999557
     atom   14 type  2   force =     3.10439031    5.37696175    9.11999557
     atom   15 type  2   force =     6.20878063   -0.00000000   -9.11999557
     atom   16 type  2   force =    -3.10439031    5.37696175   -9.11999557
     atom   17 type  2   force =    -3.10439031   -5.37696175   -9.11999557
     atom   18 type  2   force =    -0.00000000    0.00000000   -8.39314364
     atom   19 type  2   force =    -3.32638915   -0.00000000    7.00235176
     atom   20 type  2   force =     1.66319458   -2.88073751    7.00235176
     atom   21 type  2   force =     1.66319458    2.88073751    7.00235176
     atom   22 type  2   force =     0.00000000   -0.00000000   12.98081520
     The local contribution  to forces
     atom    1 type  1   force =    -9.47239911    0.00000000    0.19222113
     atom    2 type  1   force =     4.73619956   -8.20333826    0.19222113
     atom    3 type  1   force =     4.73619956    8.20333826    0.19222113
     atom    4 type  1   force =     9.47239911   -0.00000000   -0.19222113
     atom    5 type  1   force =    -4.73619956    8.20333826   -0.19222113
     atom    6 type  1   force =    -4.73619956   -8.20333826   -0.19222113
     atom    7 type  2   force =    -0.00000000   -0.00000000   12.73300487
     atom    8 type  2   force =    -3.23328773    0.00000000    6.86816295
     atom    9 type  2   force =     1.61664386   -2.80010931    6.86816295
     atom   10 type  2   force =     1.61664386    2.80010931    6.86816295
     atom   11 type  2   force =     0.00000000    0.00000000   -8.24341382
     atom   12 type  2   force =     6.09674749   -0.00000000   -8.96067162
     atom   13 type  2   force =    -3.04837375    5.27993821   -8.96067162
     atom   14 type  2   force =    -3.04837375   -5.27993821   -8.96067162
     atom   15 type  2   force =    -6.09674749    0.00000000    8.96067162
     atom   16 type  2   force =     3.04837375   -5.27993821    8.96067162
     atom   17 type  2   force =     3.04837375    5.27993821    8.96067162
     atom   18 type  2   force =    -0.00000000    0.00000000    8.24341382
     atom   19 type  2   force =     3.23328773   -0.00000000   -6.86816295
     atom   20 type  2   force =    -1.61664386    2.80010931   -6.86816295
     atom   21 type  2   force =    -1.61664386   -2.80010931   -6.86816295
     atom   22 type  2   force =    -0.00000000    0.00000000  -12.73300487
     The core correction contribution to forces
     atom    1 type  1   force =     0.00000000    0.00000000    0.00000000
     atom    2 type  1   force =     0.00000000    0.00000000    0.00000000
     atom    3 type  1   force =     0.00000000    0.00000000    0.00000000
     atom    4 type  1   force =     0.00000000    0.00000000    0.00000000
     atom    5 type  1   force =     0.00000000    0.00000000    0.00000000
     atom    6 type  1   force =     0.00000000    0.00000000    0.00000000
     atom    7 type  2   force =     0.00000000    0.00000000    0.00000000
     atom    8 type  2   force =     0.00000000    0.00000000    0.00000000
     atom    9 type  2   force =     0.00000000    0.00000000    0.00000000
     atom   10 type  2   force =     0.00000000    0.00000000    0.00000000
     atom   11 type  2   force =     0.00000000    0.00000000    0.00000000
     atom   12 type  2   force =     0.00000000    0.00000000    0.00000000
     atom   13 type  2   force =     0.00000000    0.00000000    0.00000000
     atom   14 type  2   force =     0.00000000    0.00000000    0.00000000
     atom   15 type  2   force =     0.00000000    0.00000000    0.00000000
     atom   16 type  2   force =     0.00000000    0.00000000    0.00000000
     atom   17 type  2   force =     0.00000000    0.00000000    0.00000000
     atom   18 type  2   force =     0.00000000    0.00000000    0.00000000
     atom   19 type  2   force =     0.00000000    0.00000000    0.00000000
     atom   20 type  2   force =     0.00000000    0.00000000    0.00000000
     atom   21 type  2   force =     0.00000000    0.00000000    0.00000000
     atom   22 type  2   force =     0.00000000    0.00000000    0.00000000
     The Hubbard contrib.    to forces
     atom    1 type  1   force =     0.00000000    0.00000000    0.00000000
     atom    2 type  1   force =     0.00000000    0.00000000    0.00000000
     atom    3 type  1   force =     0.00000000    0.00000000    0.00000000
     atom    4 type  1   force =     0.00000000    0.00000000    0.00000000
     atom    5 type  1   force =     0.00000000    0.00000000    0.00000000
     atom    6 type  1   force =     0.00000000    0.00000000    0.00000000
     atom    7 type  2   force =     0.00000000    0.00000000    0.00000000
     atom    8 type  2   force =     0.00000000    0.00000000    0.00000000
     atom    9 type  2   force =     0.00000000    0.00000000    0.00000000
     atom   10 type  2   force =     0.00000000    0.00000000    0.00000000
     atom   11 type  2   force =     0.00000000    0.00000000    0.00000000
     atom   12 type  2   force =     0.00000000    0.00000000    0.00000000
     atom   13 type  2   force =     0.00000000    0.00000000    0.00000000
     atom   14 type  2   force =     0.00000000    0.00000000    0.00000000
     atom   15 type  2   force =     0.00000000    0.00000000    0.00000000
     atom   16 type  2   force =     0.00000000    0.00000000    0.00000000
     atom   17 type  2   force =     0.00000000    0.00000000    0.00000000
     atom   18 type  2   force =     0.00000000    0.00000000    0.00000000
     atom   19 type  2   force =     0.00000000    0.00000000    0.00000000
     atom   20 type  2   force =     0.00000000    0.00000000    0.00000000
     atom   21 type  2   force =     0.00000000    0.00000000    0.00000000
     atom   22 type  2   force =     0.00000000    0.00000000    0.00000000
     The SCF correction term to forces
     atom    1 type  1   force =    -0.00000001    0.00000000    0.00000013
     atom    2 type  1   force =     0.00000000   -0.00000001    0.00000013
     atom    3 type  1   force =     0.00000000    0.00000001    0.00000013
     atom    4 type  1   force =     0.00000001    0.00000000   -0.00000013
     atom    5 type  1   force =    -0.00000000    0.00000001   -0.00000013
     atom    6 type  1   force =    -0.00000000   -0.00000001   -0.00000013
     atom    7 type  2   force =     0.00000000   -0.00000000    0.00000003
     atom    8 type  2   force =     0.00000001    0.00000000    0.00000005
     atom    9 type  2   force =    -0.00000000    0.00000001    0.00000005
     atom   10 type  2   force =    -0.00000000   -0.00000001    0.00000005
     atom   11 type  2   force =     0.00000000    0.00000000    0.00000006
     atom   12 type  2   force =     0.00000001    0.00000000    0.00000005
     atom   13 type  2   force =    -0.00000000    0.00000000    0.00000005
     atom   14 type  2   force =    -0.00000000   -0.00000000    0.00000005
     atom   15 type  2   force =    -0.00000001   -0.00000000   -0.00000005
     atom   16 type  2   force =     0.00000000   -0.00000000   -0.00000005
     atom   17 type  2   force =     0.00000000    0.00000000   -0.00000005
     atom   18 type  2   force =    -0.00000000   -0.00000000   -0.00000006
     atom   19 type  2   force =    -0.00000001   -0.00000000   -0.00000005
     atom   20 type  2   force =     0.00000000   -0.00000001   -0.00000005
     atom   21 type  2   force =     0.00000000    0.00000001   -0.00000005
     atom   22 type  2   force =    -0.00000000   -0.00000000   -0.00000003

     DFT-D3 dispersion contribution to forces:
     atom    1 type  1   force =    -0.00150606   -0.00000000   -0.00008892
     atom    2 type  1   force =     0.00075303   -0.00130428   -0.00008892
     atom    3 type  1   force =     0.00075303    0.00130428   -0.00008892
     atom    4 type  1   force =     0.00150606    0.00000000    0.00008892
     atom    5 type  1   force =    -0.00075303    0.00130428    0.00008892
     atom    6 type  1   force =    -0.00075303   -0.00130428    0.00008892
     atom    7 type  2   force =    -0.00000000    0.00000000   -0.00048654
     atom    8 type  2   force =     0.00097609   -0.00000000   -0.00111976
     atom    9 type  2   force =    -0.00048805    0.00084532   -0.00111976
     atom   10 type  2   force =    -0.00048805   -0.00084532   -0.00111976
     atom   11 type  2   force =     0.00000000    0.00000000    0.00270313
     atom   12 type  2   force =    -0.00080825   -0.00000000    0.00021060
     atom   13 type  2   force =     0.00040412   -0.00069996    0.00021060
     atom   14 type  2   force =     0.00040412    0.00069996    0.00021060
     atom   15 type  2   force =     0.00080825    0.00000000   -0.00021060
     atom   16 type  2   force =    -0.00040412    0.00069996   -0.00021060
     atom   17 type  2   force =    -0.00040412   -0.00069996   -0.00021060
     atom   18 type  2   force =    -0.00000000    0.00000000   -0.00270313
     atom   19 type  2   force =    -0.00097609    0.00000000    0.00111976
     atom   20 type  2   force =     0.00048805   -0.00084532    0.00111976
     atom   21 type  2   force =     0.00048805    0.00084532    0.00111976
     atom   22 type  2   force =     0.00000000    0.00000000    0.00048654

     Total force =     0.000081     Total SCF correction =     0.000000

     DFT-D3 dispersion Force =     0.006795

     Computing stress (Cartesian axis) and pressure

          total   stress  (Ry/bohr**3)                   (kbar)     P=       -0.00
  -0.00000006   0.00000000   0.00000000           -0.01        0.00        0.00
   0.00000000  -0.00000006   0.00000000            0.00       -0.01        0.00
   0.00000000   0.00000000   0.00000005            0.00        0.00        0.01

     kinetic stress (kbar)   9007.95      0.00     -0.00
                                0.00   9007.95      0.00
                               -0.00      0.00   8916.15

     local   stress (kbar) -11171.88      0.00     -0.00
                                0.00 -11171.88      0.00
                               -0.00      0.00   3588.14

     nonloc. stress (kbar)   4785.29      0.00     -0.00
                                0.00   4785.29     -0.00
                               -0.00     -0.00   4806.92

     hartree stress (kbar)   6309.02     -0.00      0.00
                               -0.00   6309.02      0.00
                                0.00      0.00   -292.88

     exc-cor stress (kbar)  -1987.43     -0.00     -0.00
                               -0.00  -1987.43      0.00
                               -0.00      0.00  -1990.14

     corecor stress (kbar)      0.00      0.00      0.00
                                0.00      0.00      0.00
                                0.00      0.00      0.00

     ewald   stress (kbar)  -6929.77      0.00      0.00
                                0.00  -6929.77     -0.00
                                0.00     -0.00 -15011.91

     hubbard stress (kbar)      0.00      0.00      0.00
                                0.00      0.00      0.00
                                0.00      0.00      0.00

     DFT-D   stress (kbar)    -13.20      0.00     -0.00
                                0.00    -13.20      0.00
                               -0.00      0.00    -16.27

     XDM     stress (kbar)      0.00      0.00      0.00
                                0.00      0.00      0.00
                                0.00      0.00      0.00

     dft-nl  stress (kbar)      0.00      0.00      0.00
                                0.00      0.00      0.00
                                0.00      0.00      0.00

     TS-vdW  stress (kbar)      0.00      0.00      0.00
                                0.00      0.00      0.00
                                0.00      0.00      0.00

     MDB     stress (kbar)      0.00      0.00      0.00
                                0.00      0.00      0.00
                                0.00      0.00      0.00

     3D-RISM stress (kbar)      0.00      0.00      0.00
                                0.00      0.00      0.00
                                0.00      0.00      0.00

     Message from routine bfgs:
     history already reset at previous step: exiting
     Energy error            =      8.9E-09 Ry
     Gradient error          =      2.1E-05 Ry/Bohr
     Cell gradient error     =      8.3E-03 kbar

     bfgs failed after  19 scf cycles and  18 bfgs steps, convergence not achieved
     (criteria: energy <  1.0E-04 Ry, force <  1.0E-06 Ry/Bohr, cell <  5.0E-01 kbar)

     End of BFGS Geometry Optimization

     Final enthalpy           =   -1118.2925650835 Ry

     File ./out/Nb3Br8.bfgs deleted, as requested
Begin final coordinates
     new unit-cell volume =   3829.97442 a.u.^3 (   567.54365 Ang^3 )
     density =      5.37155 g/cm^3

CELL_PARAMETERS (angstrom)
   6.151244551   3.551422697  -0.000000000
  -6.151244551   3.551422697   0.000000000
  -4.100829701   0.000000000  12.989843448

ATOMIC_POSITIONS (crystal)
Nb               0.0505545914       -0.0505545914       -0.2527644996
Nb               0.0505545914        0.3538736823       -0.2527644996
Nb              -0.3538736823       -0.0505545914       -0.2527644996
Nb              -0.0505545914        0.0505545914        0.2527644996
Nb              -0.0505545914       -0.3538736823        0.2527644996
Nb               0.3538736823        0.0505545914        0.2527644996
Br              -0.1349645771        0.1349645771       -0.4048937314
Br               0.3819181500       -0.3819181500       -0.3636003090
Br               0.3819181500        0.1274366089       -0.3636003090
Br              -0.1274366089       -0.3819181500       -0.3636003090
Br               0.2854666824       -0.2854666824       -0.1435999527
Br              -0.2056300389        0.2056300389       -0.1179893712
Br              -0.2056300389       -0.2932707066       -0.1179893712
Br               0.2932707066        0.2056300389       -0.1179893712
Br               0.2056300389       -0.2056300389        0.1179893712
Br               0.2056300389        0.2932707066        0.1179893712
Br              -0.2932707066       -0.2056300389        0.1179893712
Br              -0.2854666824        0.2854666824        0.1435999527
Br              -0.3819181500        0.3819181500        0.3636003090
Br              -0.3819181500       -0.1274366089        0.3636003090
Br               0.1274366089        0.3819181500        0.3636003090
Br               0.1349645771       -0.1349645771        0.4048937314
End final coordinates

     Writing config-only to output data dir ./out/Nb3Br8.save/ :
     XML data file

     Writing all to output data dir ./out/Nb3Br8.save/ :
     XML data file, charge density, pseudopotentials, collected wavefunctions

     General routines

     Parallel routines

   This run was terminated on:  18:30:31   5Jul2025

   JOB DONE.