     Program PWSCF v.7.3.1 starts on  7May2025 at 21:57:32

     Waiting for input...
     Reading input from standard input
Warning: card &CELL ignored
Warning: card / ignored
Warning: card &FCP ignored
Warning: card / ignored
Warning: card &RISM ignored
Warning: card / ignored

     Current dimensions of program PWSCF are:
     Max number of different atomic species (ntypx) = 10
     Max number of k-points (npk) =  40000
     Max angular momentum in pseudopotentials (lmaxx) =  4

     IMPORTANT: XC functional enforced from input :
     Exchange-correlation= PBE
                           (   1   4   3   4   0   0   0)
     Any further DFT definition will be discarded
     Please, verify this is what you really want

     Message from routine setup:
     using ibrav=0 with symmetry is DISCOURAGED, use correct ibrav instead
     Message from routine setup:
     Dynamics, you should have no symmetries

     K-points division:     npool     =      16
     R & G space division:  proc/nbgrp/npool/nimage =      24
     Subspace diagonalization in iterative solution of the eigenvalue problem:
     a serial algorithm will be used

     Message from routine divide_et_impera:
     suboptimal parallelization: some nodes have no k-points

     Using Slab Decomposition

     bravais-lattice index     =            0
     lattice parameter (alat)  =      11.1557  a.u.
     unit-cell volume          =    4949.5834 (a.u.)^3
     number of atoms/cell      =           11
     number of atomic types    =            2
     number of electrons       =        95.00
     number of Kohn-Sham states=           58
     kinetic-energy cutoff     =     100.0000  Ry
     charge density cutoff     =     400.0000  Ry
     scf convergence threshold =      1.0E-12
     mixing beta               =       0.7000
     number of iterations used =            8  plain     mixing
     energy convergence thresh.=      1.0E-04
     force convergence thresh. =      1.0E-06
     Exchange-correlation= PBE
                           (   1   4   3   4   0   0   0)
     nstep                     =           50

     celldm(1)=  11.155732  celldm(2)=   0.000000  celldm(3)=   0.000000
     celldm(4)=   0.000000  celldm(5)=   0.000000  celldm(6)=   0.000000

     crystal axes: (cart. coord. in units of alat)
               a(1) = (   0.866025   0.500000   0.000000 )
               a(2) = (  -0.866025   0.500000   0.000000 )
               a(3) = (   0.000000   0.000000   4.116649 )

     reciprocal axes: (cart. coord. in units 2 pi/alat)
               b(1) = (  0.577350  1.000000 -0.000000 )
               b(2) = ( -0.577350  1.000000  0.000000 )
               b(3) = (  0.000000 -0.000000  0.242916 )

     PseudoPot. # 1 for Nb read from file:
     /scratch-shared/mroesner/Nb3X8_cDFPT/pp/Nb_ONCV_PBE-1.2.upf
     MD5 check sum: 2c750ac0b6910ff4cf0ab5f6c4124a64
     Pseudo is Norm-conserving, Zval = 13.0
     Generated using ONCVPSP code by D. R. Hamann
     Using radial grid of  602 points,  6 beta functions with:
                l(1) =   0
                l(2) =   0
                l(3) =   1
                l(4) =   1
                l(5) =   2
                l(6) =   2

     PseudoPot. # 2 for F  read from file:
     /scratch-shared/mroesner/Nb3X8_cDFPT/pp/F_ONCV_PBE-1.2.upf
     MD5 check sum: 1d8275f47d602dd53cad6bcdc0eda7dc
     Pseudo is Norm-conserving, Zval =  7.0
     Generated using ONCVPSP code by D. R. Hamann
     Using radial grid of  602 points,  4 beta functions with:
                l(1) =   0
                l(2) =   0
                l(3) =   1
                l(4) =   1

     atomic species   valence    mass     pseudopotential
     Nb               13.00    92.90637     Nb( 1.00)
     F                 7.00    18.99840     F ( 1.00)

      6 Sym. Ops. (no inversion) found

                                    s                        frac. trans.

      isym =  1     identity

 cryst.   s( 1) = (     1          0          0      )
                  (     0          1          0      )
                  (     0          0          1      )

 cart.    s( 1) = (  1.0000000 -0.0000000  0.0000000 )
                  (  0.0000000  1.0000000  0.0000000 )
                  (  0.0000000  0.0000000  1.0000000 )

      isym =  2     120 deg rotation - cryst. axis [0,0,1]

[...]

      isym =  3     120 deg rotation - cryst. axis [0,0,-1]

[...]

      isym =  4     inv. 180 deg rotation - cart. axis [0,1,0]

[...]

      isym =  5     inv. 180 deg rotation - cryst. axis [1,-1,0]

[...]

      isym =  6     inv. 180 deg rotation - cryst. axis [2,1,0]

 cryst.   s( 6) = (    -1          0          0      )
                  (     1          1          0      )
                  (     0          0          1      )

 cart.    s( 6) = ( -0.5000000 -0.8660254  0.0000000 )
                  ( -0.8660254  0.5000000  0.0000000 )
                  (  0.0000000  0.0000000  1.0000000 )

   Cartesian axes

     site n.     atom                  positions (alat units)
         1        Nb     tau(   1) = (   0.2522262   0.0000000  -0.4276782  )
         2        Nb     tau(   2) = (  -0.1261131   0.2184343  -0.4276782  )
         3        Nb     tau(   3) = (  -0.1261131  -0.2184343  -0.4276782  )
         4        F      tau(   4) = (   0.0000000   0.0000000  -0.6939995  )
         5        F      tau(   5) = (   0.8540048   0.0000000  -0.6145021  )
         6        F      tau(   6) = (   0.4390230   0.2395899  -0.6145021  )
         7        F      tau(   7) = (   0.4390230  -0.2395899  -0.6145021  )
         8        F      tau(   8) = (   0.5773503  -0.0000000  -0.2355344  )
         9        F      tau(   9) = (  -0.2803149   0.0000000  -0.2003061  )
        10        F      tau(  10) = (   0.1401575  -0.2427598  -0.2003061  )
        11        F      tau(  11) = (   0.1401575   0.2427598  -0.2003061  )

     DFT-D3 Dispersion Correction (no 3-body):
       Reference C6 values for interpolation:

         atom   Coordination number   C6
         F          0.000            19.38
         F          0.998            14.27
         Nb         0.000          2950.50
         Nb         1.954          1161.16
         Nb         2.922           857.79

       Values used:

         atom   Coordination number  R0_AB[au]  C6      C8
         Nb         9.395            3.647    857.79 111659.18
         Nb         9.395            3.647    857.79 111659.18
         Nb         9.395            3.647    857.79 111659.18
         F          2.907            2.173     14.27    244.15
         F          2.017            2.173     14.27    244.15
         F          2.017            2.173     14.27    244.15
         F          2.017            2.173     14.27    244.15
         F          2.843            2.173     14.27    244.15
         F          2.020            2.173     14.27    244.15
         F          2.020            2.173     14.27    244.15
         F          2.020            2.173     14.27    244.15

         Molecular C6 ( Ry / a.u.^6 ) =     13163.94

   Crystallographic axes

     site n.     atom                  positions (cryst. coord.)
         1        Nb     tau(   1) = (  0.1456229 -0.1456229 -0.1038899  )
         2        Nb     tau(   2) = (  0.1456229  0.2912458 -0.1038899  )
         3        Nb     tau(   3) = ( -0.2912458 -0.1456229 -0.1038899  )
         4        F      tau(   4) = (  0.0000000  0.0000000 -0.1685836  )
         5        F      tau(   5) = (  0.4930599 -0.4930599 -0.1492724  )
         6        F      tau(   6) = (  0.4930599 -0.0138802 -0.1492724  )
         7        F      tau(   7) = (  0.0138802 -0.4930599 -0.1492724  )
         8        F      tau(   8) = (  0.3333333 -0.3333333 -0.0572151  )
         9        F      tau(   9) = ( -0.1618399  0.1618399 -0.0486576  )
        10        F      tau(  10) = ( -0.1618399 -0.3236798 -0.0486576  )
        11        F      tau(  11) = (  0.3236798  0.1618399 -0.0486576  )

     number of k points=     7  Marzari-Vanderbilt smearing, width (Ry)=  0.0037
                       cart. coord. in units 2pi/alat
        k(    1) = (   0.0000000   0.0000000   0.0000000), wk =   0.0555556
        k(    2) = (  -0.0962250   0.1666667   0.0000000), wk =   0.3333333
        k(    3) = (  -0.1924501   0.3333333   0.0000000), wk =   0.3333333
        k(    4) = (   0.2886751  -0.5000000   0.0000000), wk =   0.1666667
        k(    5) = (  -0.0000000   0.3333333   0.0000000), wk =   0.3333333
        k(    6) = (  -0.0962250   0.5000000   0.0000000), wk =   0.6666667
        k(    7) = (  -0.0000000   0.6666667   0.0000000), wk =   0.1111111

                       cryst. coord.
        k(    1) = (   0.0000000   0.0000000   0.0000000), wk =   0.0555556
        k(    2) = (  -0.0000000   0.1666667   0.0000000), wk =   0.3333333
        k(    3) = (  -0.0000000   0.3333333   0.0000000), wk =   0.3333333
        k(    4) = (   0.0000000  -0.5000000   0.0000000), wk =   0.1666667
        k(    5) = (   0.1666667   0.1666667   0.0000000), wk =   0.3333333
        k(    6) = (   0.1666667   0.3333333   0.0000000), wk =   0.6666667
        k(    7) = (   0.3333333   0.3333333   0.0000000), wk =   0.1111111

     Initial potential from superposition of free atoms

     starting charge      94.6507, renormalised to      95.0000

     negative rho (up, down):  1.135E-03 0.000E+00
     Starting wfcs are random

     Self-consistent Calculation

     iteration #  1     ecut=   100.00 Ry     beta= 0.70
     Davidson diagonalization with overlap

     ethr =  1.00E-02,  avg # of iterations = 16.4

     Threshold (ethr) on eigenvalues was too large:
     Diagonalizing with lowered threshold

     Davidson diagonalization with overlap

[...]

     negative rho (up, down):  2.541E-04 0.000E+00

     total energy              =    -725.06018016 Ry
     estimated scf accuracy    <       0.92045105 Ry

[...]

     End of self-consistent calculation

          k = 0.0000 0.0000 0.0000 ( 83541 PWs)   bands (ev):

   -58.4856 -58.2209 -58.2209 -35.6284 -35.0778 -35.0778 -34.9572 -34.4495
   -34.4495 -34.0225 -33.7979 -33.7979 -28.0549 -27.4696 -27.3904 -27.2483
   -27.2483 -26.6762 -26.5932 -26.5932 -10.5767 -10.5677 -10.5677 -10.2365
    -9.9046  -9.9046  -9.7785  -9.6881  -9.4750  -9.4750  -9.2994  -9.2994
    -9.2049  -8.6419  -8.6419  -8.6388  -8.4054  -8.3523  -8.3523  -8.2604
    -7.8890  -7.8890  -7.7391  -7.7391  -4.0817  -3.3550  -3.3550  -1.7542
    -0.6174  -0.6174  -0.1712   0.2780   0.2780   0.7061   1.1471   1.1471
     1.1659   1.5044

     occupation numbers
     1.0000   1.0000   1.0000   1.0000   1.0000   1.0000   1.0000   1.0000
     1.0000   1.0000   1.0000   1.0000   1.0000   1.0000   1.0000   1.0000
     1.0000   1.0000   1.0000   1.0000   1.0000   1.0000   1.0000   1.0000
     1.0000   1.0000   1.0000   1.0000   1.0000   1.0000   1.0000   1.0000
     1.0000   1.0000   1.0000   1.0000   1.0000   1.0000   1.0000   1.0000
     1.0000   1.0000   1.0000   1.0000   1.0000   1.0000   1.0000   0.0000
     0.0000   0.0000   0.0000   0.0000   0.0000   0.0000   0.0000   0.0000
     0.0000   0.0000

          k =-0.0962 0.1667 0.0000 ( 83555 PWs)   bands (ev):

[...]

[...]
                                0.00      0.00      0.00

     MDB     stress (kbar)      0.00      0.00      0.00
                                0.00      0.00      0.00
                                0.00      0.00      0.00

     3D-RISM stress (kbar)      0.00      0.00      0.00
                                0.00      0.00      0.00
                                0.00      0.00      0.00

     Damped Dynamics Calculation

     Entering Dynamics:    iteration =     1

ATOMIC_POSITIONS (crystal)
Nb               0.1455804062       -0.1455804062       -0.1039286327
Nb               0.1455804062        0.2911608123       -0.1039286327
Nb              -0.2911608123       -0.1455804062       -0.1039286327
F                0.0000000000        0.0000000000       -0.1685845479
F                0.4930580629       -0.4930580629       -0.1492721305
F                0.4930580629       -0.0138838741       -0.1492721305
F                0.0138838741       -0.4930580629       -0.1492721305
F                0.3333333333       -0.3333333333       -0.0571845908
F               -0.1618092763        0.1618092763       -0.0486289353
F               -0.1618092763       -0.3236185527       -0.0486289353
F                0.3236185527        0.1618092763       -0.0486289353

     Writing config-only to output data dir ./out/Nb3F8.save/ :
     XML data file
     NEW-OLD atomic charge density approx. for the potential

[...]

     <vel(dt)|acc(dt)> =   0.89429277

[...]

     Writing config-only to output data dir ./out/Nb3F8.save/ :
     XML data file

     first order wave-functions extrapolation
     NEW-OLD atomic charge density approx. for the potential

[...]

     second order wave-functions extrapolation
     NEW-OLD atomic charge density approx. for the potential

[...]

     negative rho (up, down):  3.146E-08 0.000E+00

[...]

     DFT-D3 dispersion Force =     0.002599
     SCF correction compared to forces is large: reduce conv_thr to get better values

[...]

     DFT-D3 dispersion Force =     0.002599

[...]

     c_bands:  1 eigenvalues not converged
     ethr =  2.12E-15,  avg # of iterations = 14.7

[...]

     Entering Dynamics:    iteration =    30

     <vel(dt)|acc(dt)> =   0.98605932

ATOMIC_POSITIONS (crystal)
Nb               0.1455207614       -0.1455207614       -0.1040737390
Nb               0.1455207614        0.2910415226       -0.1040737390
Nb              -0.2910415226       -0.1455207614       -0.1040737390
F               -0.0000000000        0.0000000000       -0.1688214952
F                0.4929826507       -0.4929826507       -0.1494370883
F                0.4929826507       -0.0140346986       -0.1494370883
F                0.0140346986       -0.4929826507       -0.1494370883
F                0.3333333333       -0.3333333333       -0.0570762347
F               -0.1600599540        0.1600599540       -0.0482760075
F               -0.1600599540       -0.3201199079       -0.0482760075
F                0.3201199079        0.1600599540       -0.0482760075

     Writing config-only to output data dir ./out/Nb3F8.save/ :
     XML data file

     second order wave-functions extrapolation
     NEW-OLD atomic charge density approx. for the potential

     Self-consistent Calculation

[...]

     Threshold (ethr) on eigenvalues was too large:
     Diagonalizing with lowered threshold

     Davidson diagonalization with overlap

[...]

     total energy              =    -725.43034864 Ry
     estimated scf accuracy    <          4.2E-12 Ry

     iteration #  3     ecut=   100.00 Ry     beta= 0.70
     Davidson diagonalization with overlap

     ethr =  1.00E-13,  avg # of iterations =  1.0

     End of self-consistent calculation

[...]

          k = 0.2887-0.5000 0.0000 ( 83612 PWs)   bands (ev):

[...]

          k =-0.0000 0.6667 0.0000 ( 83670 PWs)   bands (ev):

   -58.4914 -58.2574 -58.2410 -35.4276 -35.0008 -34.9750 -34.8993 -34.5580
   -34.5157 -34.1878 -34.1009 -33.9275 -27.7984 -27.6535 -27.1277 -27.1252
   -27.1235 -26.8262 -26.7703 -26.7585 -10.6318 -10.3739 -10.2249 -10.0048
    -9.9498  -9.8204  -9.5536  -9.5073  -9.4946  -9.3183  -9.2854  -9.2023
    -9.1872  -9.0531  -8.7804  -8.6892  -8.6469  -8.5724  -8.4277  -8.3281
    -8.1784  -7.8490  -7.8257  -7.8099  -4.2913  -3.2618  -3.1346  -2.0796
    -0.7030  -0.5942  -0.0969  -0.0475   0.2152   0.2572   0.3708   0.8163
     1.5424   1.6940

     occupation numbers
     1.0000   1.0000   1.0000   1.0000   1.0000   1.0000   1.0000   1.0000
     1.0000   1.0000   1.0000   1.0000   1.0000   1.0000   1.0000   1.0000
     1.0000   1.0000   1.0000   1.0000   1.0000   1.0000   1.0000   1.0000
     1.0000   1.0000   1.0000   1.0000   1.0000   1.0000   1.0000   1.0000
     1.0000   1.0000   1.0000   1.0000   1.0000   1.0000   1.0000   1.0000
     1.0000   1.0000   1.0000   1.0000   1.0000   1.0000   1.0000   1.0803
     0.0000   0.0000   0.0000   0.0000   0.0000   0.0000   0.0000   0.0000
     0.0000   0.0000

     the Fermi energy is    -2.0030 ev

!    total energy              =    -725.43034864 Ry
     estimated scf accuracy    <          8.1E-14 Ry
     smearing contrib. (-TS)   =       0.00010239 Ry
     internal energy E=F+TS    =    -725.43045102 Ry

     convergence has been achieved in   3 iterations

     Forces acting on atoms (cartesian axes, Ry/au):

     atom    1 type  1   force =    -0.00000017   -0.00000000    0.00000026
     atom    2 type  1   force =     0.00000008   -0.00000015    0.00000026
     atom    3 type  1   force =     0.00000008    0.00000015    0.00000026
     atom    4 type  2   force =     0.00000000    0.00000000    0.00000020
     atom    5 type  2   force =    -0.00000080   -0.00000000   -0.00000045
     atom    6 type  2   force =     0.00000040   -0.00000069   -0.00000045
     atom    7 type  2   force =     0.00000040    0.00000069   -0.00000045
     atom    8 type  2   force =     0.00000000    0.00000000    0.00000042
     atom    9 type  2   force =    -0.00000003   -0.00000000   -0.00000002
     atom   10 type  2   force =     0.00000002   -0.00000003   -0.00000002
     atom   11 type  2   force =     0.00000002    0.00000003   -0.00000002
     The non-local contrib.  to forces
     atom    1 type  1   force =    -0.36975222   -0.00000000   -0.05734081
     atom    2 type  1   force =     0.18487611   -0.32021482   -0.05734081
     atom    3 type  1   force =     0.18487611    0.32021482   -0.05734081
     atom    4 type  2   force =    -0.00000000   -0.00000000    1.51293266
     atom    5 type  2   force =    -0.58470086   -0.00000000    0.96511617
     atom    6 type  2   force =     0.29235043   -0.50636580    0.96511617
     atom    7 type  2   force =     0.29235043    0.50636580    0.96511617
     atom    8 type  2   force =    -0.00000000    0.00000000   -1.06015532
     atom    9 type  2   force =     0.76132308   -0.00000000   -1.21046345
     atom   10 type  2   force =    -0.38066154    0.65932513   -1.21046345
     atom   11 type  2   force =    -0.38066154   -0.65932513   -1.21046345
     The ionic contribution  to forces
     atom    1 type  1   force =     7.34346985    0.00000000   -1.77499782
     atom    2 type  1   force =    -3.67173493    6.35963145   -1.77499782
     atom    3 type  1   force =    -3.67173493   -6.35963145   -1.77499782
     atom    4 type  2   force =    -0.00000000   -0.00000000  -54.09524071
     atom    5 type  2   force =     6.69139891   -0.00000000  -38.24434482
     atom    6 type  2   force =    -3.34569945    5.79492145  -38.24434482
     atom    7 type  2   force =    -3.34569945   -5.79492145  -38.24434482
     atom    8 type  2   force =     0.00000001   -0.00000000   39.98315012
     atom    9 type  2   force =    -9.15058532   -0.00000000   44.72337284
     atom   10 type  2   force =     4.57529266   -7.92463934   44.72337284
     atom   11 type  2   force =     4.57529266    7.92463934   44.72337284
     The local contribution  to forces
     atom    1 type  1   force =    -6.97276869   -0.00000000    1.83235688
     atom    2 type  1   force =     3.48638430   -6.03859480    1.83235688
     atom    3 type  1   force =     3.48638430    6.03859480    1.83235688
     atom    4 type  2   force =     0.00000000   -0.00000000   52.58177206
     atom    5 type  2   force =    -6.10686555    0.00000000   37.27857968
     atom    6 type  2   force =     3.05343277   -5.28870070   37.27857968
     atom    7 type  2   force =     3.05343277    5.28870070   37.27857968
     atom    8 type  2   force =     0.00000004    0.00000000  -38.92255900
     atom    9 type  2   force =     8.38967178   -0.00000000  -43.51214951
     atom   10 type  2   force =    -4.19483589    7.26566889  -43.51214951
     atom   11 type  2   force =    -4.19483589   -7.26566889  -43.51214951
     The core correction contribution to forces
     atom    1 type  1   force =     0.00000000    0.00000000    0.00000000
     atom    2 type  1   force =     0.00000000    0.00000000    0.00000000
     atom    3 type  1   force =     0.00000000    0.00000000    0.00000000
     atom    4 type  2   force =     0.00000000    0.00000000    0.00000000
     atom    5 type  2   force =     0.00000000    0.00000000    0.00000000
     atom    6 type  2   force =     0.00000000    0.00000000    0.00000000
     atom    7 type  2   force =     0.00000000    0.00000000    0.00000000
     atom    8 type  2   force =     0.00000000    0.00000000    0.00000000
     atom    9 type  2   force =     0.00000000    0.00000000    0.00000000
     atom   10 type  2   force =     0.00000000    0.00000000    0.00000000
     atom   11 type  2   force =     0.00000000    0.00000000    0.00000000
     The Hubbard contrib.    to forces
     atom    1 type  1   force =     0.00000000    0.00000000    0.00000000
     atom    2 type  1   force =     0.00000000    0.00000000    0.00000000
     atom    3 type  1   force =     0.00000000    0.00000000    0.00000000
     atom    4 type  2   force =     0.00000000    0.00000000    0.00000000
     atom    5 type  2   force =     0.00000000    0.00000000    0.00000000
     atom    6 type  2   force =     0.00000000    0.00000000    0.00000000
     atom    7 type  2   force =     0.00000000    0.00000000    0.00000000
     atom    8 type  2   force =     0.00000000    0.00000000    0.00000000
     atom    9 type  2   force =     0.00000000    0.00000000    0.00000000
     atom   10 type  2   force =     0.00000000    0.00000000    0.00000000
     atom   11 type  2   force =     0.00000000    0.00000000    0.00000000
     The SCF correction term to forces
     atom    1 type  1   force =     0.00000015    0.00000000   -0.00000086
     atom    2 type  1   force =    -0.00000007    0.00000013   -0.00000086
     atom    3 type  1   force =    -0.00000007   -0.00000013   -0.00000086
     atom    4 type  2   force =     0.00000000    0.00000000   -0.00000017
     atom    5 type  2   force =    -0.00000018   -0.00000000   -0.00000030
     atom    6 type  2   force =     0.00000009   -0.00000016   -0.00000030
     atom    7 type  2   force =     0.00000009    0.00000016   -0.00000030
     atom    8 type  2   force =    -0.00000000   -0.00000000   -0.00000027
     atom    9 type  2   force =     0.00000001   -0.00000000   -0.00000010
     atom   10 type  2   force =    -0.00000001    0.00000001   -0.00000010
     atom   11 type  2   force =    -0.00000001   -0.00000001   -0.00000010

     DFT-D3 dispersion contribution to forces:
     atom    1 type  1   force =    -0.00094928    0.00000000    0.00000861
     atom    2 type  1   force =     0.00047464   -0.00082210    0.00000861
     atom    3 type  1   force =     0.00047464    0.00082210    0.00000861
     atom    4 type  2   force =    -0.00000000   -0.00000000    0.00056209
     atom    5 type  2   force =     0.00016688    0.00000000    0.00067457
     atom    6 type  2   force =    -0.00008344    0.00014452    0.00067457
     atom    7 type  2   force =    -0.00008344   -0.00014452    0.00067457
     atom    8 type  2   force =    -0.00000000    0.00000000   -0.00040938
     atom    9 type  2   force =    -0.00040960   -0.00000000   -0.00073408
     atom   10 type  2   force =     0.00020480   -0.00035472   -0.00073408
     atom   11 type  2   force =     0.00020480    0.00035472   -0.00073408

     Total force =     0.000002     Total SCF correction =     0.000002

     DFT-D3 dispersion Force =     0.002599
     SCF correction compared to forces is large: reduce conv_thr to get better values

     Computing stress (Cartesian axis) and pressure

          total   stress  (Ry/bohr**3)                   (kbar)     P=        2.13
   0.00002214  -0.00000000   0.00000000            3.26       -0.00        0.00
  -0.00000000   0.00002214   0.00000000           -0.00        3.26        0.00
   0.00000000   0.00000000  -0.00000082            0.00        0.00       -0.12

     kinetic stress (kbar)   7195.03      0.00      0.00
                                0.00   7195.03      0.00
                                0.00      0.00   7180.12

     local   stress (kbar)-175543.91      0.00     -0.00
                                0.00-175543.91     -0.00
                               -0.00     -0.00 169081.96

     nonloc. stress (kbar)    354.57     -0.00     -0.00
                               -0.00    354.57     -0.00
                               -0.00     -0.00    363.50

     hartree stress (kbar)  86700.68     -0.00      0.00
                               -0.00  86700.68     -0.00
                                0.00     -0.00 -82837.71

     exc-cor stress (kbar)  -1082.38      0.00      0.00
                                0.00  -1082.38     -0.00
                                0.00     -0.00  -1085.02

     corecor stress (kbar)      0.00      0.00      0.00
                                0.00      0.00      0.00
                                0.00      0.00      0.00

     ewald   stress (kbar)  82382.01     -0.00      0.00
                               -0.00  82382.01      0.00
                                0.00      0.00 -92702.59

     hubbard stress (kbar)      0.00      0.00      0.00
                                0.00      0.00      0.00
                                0.00      0.00      0.00

     DFT-D   stress (kbar)     -2.73     -0.00     -0.00
                               -0.00     -2.73      0.00
                               -0.00      0.00     -0.37

     XDM     stress (kbar)      0.00      0.00      0.00
                                0.00      0.00      0.00
                                0.00      0.00      0.00

     dft-nl  stress (kbar)      0.00      0.00      0.00
                                0.00      0.00      0.00
                                0.00      0.00      0.00

     TS-vdW  stress (kbar)      0.00      0.00      0.00
                                0.00      0.00      0.00
                                0.00      0.00      0.00

     MDB     stress (kbar)      0.00      0.00      0.00
                                0.00      0.00      0.00
                                0.00      0.00      0.00

     3D-RISM stress (kbar)      0.00      0.00      0.00
                                0.00      0.00      0.00
                                0.00      0.00      0.00

     Damped Dynamics: convergence achieved in  30 steps

     End of damped dynamics calculation

     Final energy =    -725.4303486352 Ry

Begin final coordinates
     new unit-cell volume =   4949.58336 a.u.^3 (   733.45258 Ang^3 )
     density =      0.97512 g/cm^3

CELL_PARAMETERS (angstrom)
   5.112458790   2.951679459   0.000000000
  -5.112458790   2.951679459   0.000000000
   0.000000000   0.000000000  24.302056867

ATOMIC_POSITIONS (crystal)
Nb               0.1455207614       -0.1455207614       -0.1040737390
Nb               0.1455207614        0.2910415226       -0.1040737390
Nb              -0.2910415226       -0.1455207614       -0.1040737390
F               -0.0000000000        0.0000000000       -0.1688214952
F                0.4929826507       -0.4929826507       -0.1494370883
F                0.4929826507       -0.0140346986       -0.1494370883
F                0.0140346986       -0.4929826507       -0.1494370883
F                0.3333333333       -0.3333333333       -0.0570762347
F               -0.1600599540        0.1600599540       -0.0482760075
F               -0.1600599540       -0.3201199079       -0.0482760075
F                0.3201199079        0.1600599540       -0.0482760075
End final coordinates

     Writing all to output data dir ./out/Nb3F8.save/ :
     XML data file, charge density, pseudopotentials, collected wavefunctions

     General routines

     Parallel routines

   This run was terminated on:  22: 7:13   7May2025

   JOB DONE.