     Program PWSCF v.7.3.1 starts on  2May2025 at  9:55:21

     Waiting for input...
     Reading input from standard input
Warning: card &CELL ignored
Warning: card / ignored
Warning: card &FCP ignored
Warning: card / ignored
Warning: card &RISM ignored
Warning: card / ignored

     Current dimensions of program PWSCF are:
     Max number of different atomic species (ntypx) = 10
     Max number of k-points (npk) =  40000
     Max angular momentum in pseudopotentials (lmaxx) =  4

     IMPORTANT: XC functional enforced from input :
     Exchange-correlation= PBE
                           (   1   4   3   4   0   0   0)
     Any further DFT definition will be discarded
     Please, verify this is what you really want

     Message from routine setup:
     using ibrav=0 with symmetry is DISCOURAGED, use correct ibrav instead
     Message from routine setup:
     Dynamics, you should have no symmetries

     K-points division:     npool     =      16
     R & G space division:  proc/nbgrp/npool/nimage =      24
     Subspace diagonalization in iterative solution of the eigenvalue problem:
     a serial algorithm will be used

     Using Slab Decomposition

     bravais-lattice index     =            0
     lattice parameter (alat)  =      11.1557  a.u.
     unit-cell volume          =    1979.8333 (a.u.)^3
     number of atoms/cell      =           22
     number of atomic types    =            2
     number of electrons       =       190.00
     number of Kohn-Sham states=          114
     kinetic-energy cutoff     =     100.0000  Ry
     charge density cutoff     =     400.0000  Ry
     scf convergence threshold =      1.0E-12
     mixing beta               =       0.7000
     number of iterations used =            8  plain     mixing
     energy convergence thresh.=      1.0E-04
     force convergence thresh. =      1.0E-06
     Exchange-correlation= PBE
                           (   1   4   3   4   0   0   0)
     nstep                     =           50

     celldm(1)=  11.155732  celldm(2)=   0.000000  celldm(3)=   0.000000
     celldm(4)=   0.000000  celldm(5)=   0.000000  celldm(6)=   0.000000

     crystal axes: (cart. coord. in units of alat)
               a(1) = (   0.866025   0.500000   0.000000 )
               a(2) = (  -0.866025   0.500000   0.000000 )
               a(3) = (  -0.577350   0.000000   1.646660 )

     reciprocal axes: (cart. coord. in units 2 pi/alat)
               b(1) = (  0.577350  1.000000  0.202430 )
               b(2) = ( -0.577350  1.000000 -0.202430 )
               b(3) = (  0.000000 -0.000000  0.607290 )

     PseudoPot. # 1 for Nb read from file:
     /scratch-shared/mroesner/Nb3X8_cDFPT/pp/Nb_ONCV_PBE-1.2.upf
     MD5 check sum: 2c750ac0b6910ff4cf0ab5f6c4124a64
     Pseudo is Norm-conserving, Zval = 13.0
     Generated using ONCVPSP code by D. R. Hamann
     Using radial grid of  602 points,  6 beta functions with:
                l(1) =   0
                l(2) =   0
                l(3) =   1
                l(4) =   1
                l(5) =   2
                l(6) =   2

     PseudoPot. # 2 for F  read from file:
     /scratch-shared/mroesner/Nb3X8_cDFPT/pp/F_ONCV_PBE-1.2.upf
     MD5 check sum: 1d8275f47d602dd53cad6bcdc0eda7dc
     Pseudo is Norm-conserving, Zval =  7.0
     Generated using ONCVPSP code by D. R. Hamann
     Using radial grid of  602 points,  4 beta functions with:
                l(1) =   0
                l(2) =   0
                l(3) =   1
                l(4) =   1

     atomic species   valence    mass     pseudopotential
     Nb               13.00    92.90637     Nb( 1.00)
     F                 7.00    18.99840     F ( 1.00)

     12 Sym. Ops., with inversion, found

                                    s                        frac. trans.

      isym =  1     identity

 cryst.   s( 1) = (     1          0          0      )
                  (     0          1          0      )
                  (     0          0          1      )

 cart.    s( 1) = (  1.0000000 -0.0000000 -0.0000000 )
                  ( -0.0000000  1.0000000  0.0000000 )
                  (  0.0000000  0.0000000  1.0000000 )

      isym =  2     180 deg rotation - cart. axis [0,1,0]

[...]

      isym =  3     120 deg rotation - cryst. axis [0,0,1]

[...]

      isym =  6     180 deg rotation - cryst. axis [2,1,0]

[...]

      isym =  7     inversion

[...]

      isym =  8     inv. 180 deg rotation - cart. axis [0,1,0]

[...]

      isym =  9     inv. 120 deg rotation - cryst. axis [0,0,1]

 cryst.   s( 9) = (     0         -1          0      )
                  (     1          1          0      )
                  (     0          1         -1      )

 cart.    s( 9) = (  0.5000000  0.8660254  0.0000000 )
                  ( -0.8660254  0.5000000 -0.0000000 )
                  (  0.0000000  0.0000000 -1.0000000 )

[...]

 cryst.   s(10) = (     1          1          0      )
                  (    -1          0          0      )
                  (    -1          0         -1      )

 cart.    s(10) = (  0.5000000 -0.8660254  0.0000000 )
                  (  0.8660254  0.5000000  0.0000000 )
                  (  0.0000000  0.0000000 -1.0000000 )

[...]

      isym = 12     inv. 180 deg rotation - cryst. axis [2,1,0]

 cryst.   s(12) = (    -1          0          0      )
                  (     1          1          0      )
                  (     1          0          1      )

 cart.    s(12) = ( -0.5000000 -0.8660254 -0.0000000 )
                  ( -0.8660254  0.5000000 -0.0000000 )
                  (  0.0000000  0.0000000  1.0000000 )

   Cartesian axes

     site n.     atom                  positions (alat units)
         1        Nb     tau(   1) = (   0.2522031   0.0000000  -0.4116592  )
         2        Nb     tau(   2) = (  -0.1261016   0.2184143  -0.4116592  )
         3        Nb     tau(   3) = (  -0.1261016  -0.2184143  -0.4116592  )
         4        Nb     tau(   4) = (  -0.2522031  -0.0000000   0.4116592  )
         5        Nb     tau(   5) = (   0.1261016  -0.2184143   0.4116592  )
         6        Nb     tau(   6) = (   0.1261016   0.2184143   0.4116592  )
         7        F      tau(   7) = (   0.0000000   0.0000000  -0.6755977  )
         8        F      tau(   8) = (   0.8569729   0.0000000  -0.5958078  )
         9        F      tau(   9) = (   0.4375389   0.2421603  -0.5958078  )
        10        F      tau(  10) = (   0.4375389  -0.2421603  -0.5958078  )
        11        F      tau(  11) = (   0.5773503  -0.0000000  -0.2213053  )
        12        F      tau(  12) = (  -0.2835881   0.0000000  -0.1869646  )
        13        F      tau(  13) = (   0.1417940  -0.2455945  -0.1869646  )
        14        F      tau(  14) = (   0.1417941   0.2455945  -0.1869646  )
        15        F      tau(  15) = (   0.2835881  -0.0000000   0.1869646  )
        16        F      tau(  16) = (  -0.1417940   0.2455945   0.1869646  )
        17        F      tau(  17) = (  -0.1417941  -0.2455945   0.1869646  )
        18        F      tau(  18) = (  -0.5773503   0.0000000   0.2213053  )
        19        F      tau(  19) = (  -0.8569729  -0.0000000   0.5958078  )
        20        F      tau(  20) = (  -0.4375389  -0.2421603   0.5958078  )
        21        F      tau(  21) = (  -0.4375389   0.2421603   0.5958078  )
        22        F      tau(  22) = (  -0.0000000  -0.0000000   0.6755977  )

     DFT-D3 Dispersion Correction (no 3-body):
       Reference C6 values for interpolation:

         atom   Coordination number   C6
         F          0.000            19.38
         F          0.998            14.27
         Nb         0.000          2950.50
         Nb         1.954          1161.16
         Nb         2.922           857.79

       Values used:

         atom   Coordination number  R0_AB[au]  C6      C8
         Nb         9.493            3.647    857.79 111659.18
         Nb         9.493            3.647    857.79 111659.18
         Nb         9.493            3.647    857.79 111659.18
         Nb         9.493            3.647    857.79 111659.18
         Nb         9.493            3.647    857.79 111659.18
         Nb         9.493            3.647    857.79 111659.18
         F          2.947            2.173     14.27    244.15
         F          2.035            2.173     14.27    244.15
         F          2.035            2.173     14.27    244.15
         F          2.035            2.173     14.27    244.15
         F          2.863            2.173     14.27    244.15
         F          2.050            2.173     14.27    244.15
         F          2.050            2.173     14.27    244.15
         F          2.050            2.173     14.27    244.15
         F          2.050            2.173     14.27    244.15
         F          2.050            2.173     14.27    244.15
         F          2.050            2.173     14.27    244.15
         F          2.863            2.173     14.27    244.15
         F          2.035            2.173     14.27    244.15
         F          2.035            2.173     14.27    244.15
         F          2.035            2.173     14.27    244.15
         F          2.947            2.173     14.27    244.15

         Molecular C6 ( Ry / a.u.^6 ) =     52655.74

   Crystallographic axes

     site n.     atom                  positions (cryst. coord.)
         1        Nb     tau(   1) = (  0.0622774 -0.0622774 -0.2499965  )
         2        Nb     tau(   2) = (  0.0622774  0.3745513 -0.2499965  )
         3        Nb     tau(   3) = ( -0.3745513 -0.0622774 -0.2499965  )
         4        Nb     tau(   4) = ( -0.0622774  0.0622774  0.2499965  )
         5        Nb     tau(   5) = ( -0.0622774 -0.3745513  0.2499965  )
         6        Nb     tau(   6) = (  0.3745513  0.0622774  0.2499965  )
         7        F      tau(   7) = ( -0.1367613  0.1367613 -0.4102838  )
         8        F      tau(   8) = (  0.3741642 -0.3741642 -0.3618282  )
         9        F      tau(   9) = (  0.3741642  0.1101565 -0.3618282  )
        10        F      tau(  10) = ( -0.1101565 -0.3741642 -0.3618282  )
        11        F      tau(  11) = (  0.2885345 -0.2885345 -0.1343965  )
        12        F      tau(  12) = ( -0.2015769  0.2015769 -0.1135418  )
        13        F      tau(  13) = ( -0.2015769 -0.2896121 -0.1135418  )
        14        F      tau(  14) = (  0.2896121  0.2015769 -0.1135418  )
        15        F      tau(  15) = (  0.2015769 -0.2015769  0.1135418  )
        16        F      tau(  16) = (  0.2015769  0.2896121  0.1135418  )
        17        F      tau(  17) = ( -0.2896121 -0.2015769  0.1135418  )
        18        F      tau(  18) = ( -0.2885345  0.2885345  0.1343965  )
        19        F      tau(  19) = ( -0.3741642  0.3741642  0.3618282  )
        20        F      tau(  20) = ( -0.3741642 -0.1101565  0.3618282  )
        21        F      tau(  21) = (  0.1101565  0.3741642  0.3618282  )
        22        F      tau(  22) = (  0.1367613 -0.1367613  0.4102838  )

     number of k points=    32  Marzari-Vanderbilt smearing, width (Ry)=  0.0037
                       cart. coord. in units 2pi/alat
[...]
     atom    7 type  2   force =     0.00000000    0.00000000    1.52038790
     atom    8 type  2   force =    -0.61823758    0.00000000    0.94815252
     atom    9 type  2   force =     0.30911879   -0.53540945    0.94815252
     atom   10 type  2   force =     0.30911879    0.53540945    0.94815252
     atom   11 type  2   force =     0.00000000    0.00000000   -1.09255147
     atom   12 type  2   force =     0.79646387    0.00000000   -1.16363792
     atom   13 type  2   force =    -0.39823194    0.68975795   -1.16363792
     atom   14 type  2   force =    -0.39823194   -0.68975795   -1.16363792
     atom   15 type  2   force =    -0.79646387    0.00000000    1.16363792
     atom   16 type  2   force =     0.39823194   -0.68975795    1.16363792
     atom   17 type  2   force =     0.39823194    0.68975795    1.16363792
     atom   18 type  2   force =     0.00000000    0.00000000    1.09255147
     atom   19 type  2   force =     0.61823758   -0.00000000   -0.94815252
     atom   20 type  2   force =    -0.30911879    0.53540945   -0.94815252
     atom   21 type  2   force =    -0.30911879   -0.53540945   -0.94815252
     atom   22 type  2   force =    -0.00000000   -0.00000000   -1.52038790
     The ionic contribution  to forces
     atom    1 type  1   force =     7.09145472   -0.00000054   -1.79005619
     atom    2 type  1   force =    -3.54572688    6.14138020   -1.79005618
     atom    3 type  1   force =    -3.54572782   -6.14137966   -1.79005618
     atom    4 type  1   force =    -7.09145472    0.00000054    1.79005619
     atom    5 type  1   force =     3.54572688   -6.14138020    1.79005618
     atom    6 type  1   force =     3.54572782    6.14137966    1.79005618
     atom    7 type  2   force =     0.00000000    0.00000000  -15.11729605
     atom    8 type  2   force =     7.65539339   -0.00000079  -10.50634835
     atom    9 type  2   force =    -3.82769602    6.62976554  -10.50634835
     atom   10 type  2   force =    -3.82769738   -6.62976475  -10.50634835
     atom   11 type  2   force =    -0.00000000   -0.00000000   11.99651629
     atom   12 type  2   force =    -9.53100865   -0.00000048   10.23942550
     atom   13 type  2   force =     4.76550474   -8.25409537   10.23942550
     atom   14 type  2   force =     4.76550391    8.25409585   10.23942550
     atom   15 type  2   force =     9.53100865    0.00000048  -10.23942550
     atom   16 type  2   force =    -4.76550474    8.25409537  -10.23942550
     atom   17 type  2   force =    -4.76550391   -8.25409585  -10.23942550
     atom   18 type  2   force =     0.00000000    0.00000000  -11.99651629
     atom   19 type  2   force =    -7.65539339    0.00000079   10.50634835
     atom   20 type  2   force =     3.82769602   -6.62976554   10.50634835
     atom   21 type  2   force =     3.82769738    6.62976475   10.50634835
     atom   22 type  2   force =    -0.00000000   -0.00000000   15.11729605
     The local contribution  to forces
     atom    1 type  1   force =    -6.71570713   -0.00000302    1.84471518
     atom    2 type  1   force =     3.35785618   -5.81597146    1.84471518
     atom    3 type  1   force =     3.35785094    5.81597449    1.84471518
     atom    4 type  1   force =     6.71570713    0.00000302   -1.84471518
     atom    5 type  1   force =    -3.35785618    5.81597146   -1.84471518
     atom    6 type  1   force =    -3.35785094   -5.81597449   -1.84471518
     atom    7 type  2   force =    -0.00000000   -0.00000000   13.59765647
     atom    8 type  2   force =    -7.03725890   -0.00000324    9.55851219
     atom    9 type  2   force =     3.51863220   -6.09444332    9.55851219
     atom   10 type  2   force =     3.51862658    6.09444656    9.55851219
     atom   11 type  2   force =    -0.00000004    0.00000000  -10.90458132
     atom   12 type  2   force =     8.73490758   -0.00000346   -9.07623742
     atom   13 type  2   force =    -4.36745080    7.56465359   -9.07623742
     atom   14 type  2   force =    -4.36745678   -7.56465014   -9.07623742
     atom   15 type  2   force =    -8.73490758    0.00000346    9.07623742
     atom   16 type  2   force =     4.36745080   -7.56465359    9.07623742
     atom   17 type  2   force =     4.36745678    7.56465014    9.07623742
     atom   18 type  2   force =     0.00000004   -0.00000000   10.90458132
     atom   19 type  2   force =     7.03725890    0.00000324   -9.55851219
     atom   20 type  2   force =    -3.51863220    6.09444332   -9.55851219
     atom   21 type  2   force =    -3.51862658   -6.09444656   -9.55851219
     atom   22 type  2   force =     0.00000000    0.00000000  -13.59765647
     The core correction contribution to forces
     atom    1 type  1   force =     0.00000000    0.00000000    0.00000000
     atom    2 type  1   force =     0.00000000    0.00000000    0.00000000
     atom    3 type  1   force =     0.00000000    0.00000000    0.00000000
     atom    4 type  1   force =     0.00000000    0.00000000    0.00000000
     atom    5 type  1   force =     0.00000000    0.00000000    0.00000000
     atom    6 type  1   force =     0.00000000    0.00000000    0.00000000
     atom    7 type  2   force =     0.00000000    0.00000000    0.00000000
     atom    8 type  2   force =     0.00000000    0.00000000    0.00000000
     atom    9 type  2   force =     0.00000000    0.00000000    0.00000000
     atom   10 type  2   force =     0.00000000    0.00000000    0.00000000
     atom   11 type  2   force =     0.00000000    0.00000000    0.00000000
     atom   12 type  2   force =     0.00000000    0.00000000    0.00000000
     atom   13 type  2   force =     0.00000000    0.00000000    0.00000000
     atom   14 type  2   force =     0.00000000    0.00000000    0.00000000
     atom   15 type  2   force =     0.00000000    0.00000000    0.00000000
     atom   16 type  2   force =     0.00000000    0.00000000    0.00000000
     atom   17 type  2   force =     0.00000000    0.00000000    0.00000000
     atom   18 type  2   force =     0.00000000    0.00000000    0.00000000
     atom   19 type  2   force =     0.00000000    0.00000000    0.00000000
     atom   20 type  2   force =     0.00000000    0.00000000    0.00000000
     atom   21 type  2   force =     0.00000000    0.00000000    0.00000000
     atom   22 type  2   force =     0.00000000    0.00000000    0.00000000
     The Hubbard contrib.    to forces
     atom    1 type  1   force =     0.00000000    0.00000000    0.00000000
     atom    2 type  1   force =     0.00000000    0.00000000    0.00000000
     atom    3 type  1   force =     0.00000000    0.00000000    0.00000000
     atom    4 type  1   force =     0.00000000    0.00000000    0.00000000
     atom    5 type  1   force =     0.00000000    0.00000000    0.00000000
     atom    6 type  1   force =     0.00000000    0.00000000    0.00000000
     atom    7 type  2   force =     0.00000000    0.00000000    0.00000000
     atom    8 type  2   force =     0.00000000    0.00000000    0.00000000
     atom    9 type  2   force =     0.00000000    0.00000000    0.00000000
     atom   10 type  2   force =     0.00000000    0.00000000    0.00000000
     atom   11 type  2   force =     0.00000000    0.00000000    0.00000000
     atom   12 type  2   force =     0.00000000    0.00000000    0.00000000
     atom   13 type  2   force =     0.00000000    0.00000000    0.00000000
     atom   14 type  2   force =     0.00000000    0.00000000    0.00000000
     atom   15 type  2   force =     0.00000000    0.00000000    0.00000000
     atom   16 type  2   force =     0.00000000    0.00000000    0.00000000
     atom   17 type  2   force =     0.00000000    0.00000000    0.00000000
     atom   18 type  2   force =     0.00000000    0.00000000    0.00000000
     atom   19 type  2   force =     0.00000000    0.00000000    0.00000000
     atom   20 type  2   force =     0.00000000    0.00000000    0.00000000
     atom   21 type  2   force =     0.00000000    0.00000000    0.00000000
     atom   22 type  2   force =     0.00000000    0.00000000    0.00000000
     The SCF correction term to forces
     atom    1 type  1   force =     0.00000013    0.00000000    0.00000020
     atom    2 type  1   force =    -0.00000006    0.00000011    0.00000020
     atom    3 type  1   force =    -0.00000006   -0.00000011    0.00000020
     atom    4 type  1   force =    -0.00000013   -0.00000000   -0.00000020
     atom    5 type  1   force =     0.00000006   -0.00000011   -0.00000020
     atom    6 type  1   force =     0.00000006    0.00000011   -0.00000020
     atom    7 type  2   force =    -0.00000000    0.00000000    0.00000013
     atom    8 type  2   force =     0.00000007    0.00000000    0.00000022
     atom    9 type  2   force =    -0.00000004    0.00000006    0.00000022
     atom   10 type  2   force =    -0.00000004   -0.00000006    0.00000022
     atom   11 type  2   force =    -0.00000000   -0.00000000    0.00000007
     atom   12 type  2   force =    -0.00000015   -0.00000000   -0.00000000
     atom   13 type  2   force =     0.00000008   -0.00000013   -0.00000000
     atom   14 type  2   force =     0.00000008    0.00000013   -0.00000000
     atom   15 type  2   force =     0.00000015    0.00000000    0.00000000
     atom   16 type  2   force =    -0.00000008    0.00000013    0.00000000
     atom   17 type  2   force =    -0.00000008   -0.00000013    0.00000000
     atom   18 type  2   force =     0.00000000    0.00000000   -0.00000007
     atom   19 type  2   force =    -0.00000007   -0.00000000   -0.00000022
     atom   20 type  2   force =     0.00000004   -0.00000006   -0.00000022
     atom   21 type  2   force =     0.00000004    0.00000006   -0.00000022
     atom   22 type  2   force =     0.00000000   -0.00000000   -0.00000013

     DFT-D3 dispersion contribution to forces:
     atom    1 type  1   force =    -0.00099469    0.00000000    0.00013876
     atom    2 type  1   force =     0.00049734   -0.00086143    0.00013876
     atom    3 type  1   force =     0.00049734    0.00086143    0.00013876
     atom    4 type  1   force =     0.00099469   -0.00000000   -0.00013876
     atom    5 type  1   force =    -0.00049734    0.00086143   -0.00013876
     atom    6 type  1   force =    -0.00049734   -0.00086143   -0.00013876
     atom    7 type  2   force =    -0.00000000    0.00000000   -0.00074815
     atom    8 type  2   force =     0.00010316    0.00000000   -0.00031620
     atom    9 type  2   force =    -0.00005158    0.00008934   -0.00031620
     atom   10 type  2   force =    -0.00005158   -0.00008934   -0.00031620
     atom   11 type  2   force =     0.00000000   -0.00000000    0.00061666
     atom   12 type  2   force =    -0.00036349    0.00000000    0.00044959
     atom   13 type  2   force =     0.00018174   -0.00031479    0.00044959
     atom   14 type  2   force =     0.00018174    0.00031479    0.00044959
     atom   15 type  2   force =     0.00036349   -0.00000000   -0.00044959
     atom   16 type  2   force =    -0.00018174    0.00031479   -0.00044959
     atom   17 type  2   force =    -0.00018174   -0.00031479   -0.00044959
     atom   18 type  2   force =    -0.00000000    0.00000000   -0.00061666
     atom   19 type  2   force =    -0.00010316   -0.00000000    0.00031620
     atom   20 type  2   force =     0.00005158   -0.00008934    0.00031620
     atom   21 type  2   force =     0.00005158    0.00008934    0.00031620
     atom   22 type  2   force =     0.00000000   -0.00000000    0.00074815

     Total force =     0.000003     Total SCF correction =     0.000001

     DFT-D3 dispersion Force =     0.003256
     SCF correction compared to forces is large: reduce conv_thr to get better values

     Computing stress (Cartesian axis) and pressure

          total   stress  (Ry/bohr**3)                   (kbar)     P=       16.33
   0.00012070  -0.00000000   0.00000000           17.76       -0.00        0.00
   0.00000000   0.00012070   0.00000000            0.00       17.76        0.00
   0.00000000  -0.00000000   0.00009172            0.00       -0.00       13.49

     kinetic stress (kbar)  35986.26     -0.00      0.00
                               -0.00  35986.26     -0.00
                                0.00      0.00  35970.48

     local   stress (kbar) -25997.92     -0.00     -0.00
                               -0.00 -25997.92      0.00
                               -0.00      0.00  -5342.04

     nonloc. stress (kbar)   1771.34      0.00      0.00
                                0.00   1771.34      0.00
                                0.00      0.00   1801.79

     hartree stress (kbar)  13405.09      0.00      0.00
                                0.00  13405.09     -0.00
                                0.00     -0.00   5529.83

     exc-cor stress (kbar)  -5416.07      0.00     -0.00
                                0.00  -5416.07      0.00
                               -0.00      0.00  -5428.08

     corecor stress (kbar)      0.00      0.00      0.00
                                0.00      0.00      0.00
                                0.00      0.00      0.00

     ewald   stress (kbar) -19709.86      0.00      0.00
                                0.00 -19709.86      0.00
                                0.00      0.00 -32493.98

     hubbard stress (kbar)      0.00      0.00      0.00
                                0.00      0.00      0.00
                                0.00      0.00      0.00

     DFT-D   stress (kbar)    -21.09      0.00      0.00
                                0.00    -21.09     -0.00
                                0.00     -0.00    -24.50

     XDM     stress (kbar)      0.00      0.00      0.00
                                0.00      0.00      0.00
                                0.00      0.00      0.00

     dft-nl  stress (kbar)      0.00      0.00      0.00
                                0.00      0.00      0.00
                                0.00      0.00      0.00

     TS-vdW  stress (kbar)      0.00      0.00      0.00
                                0.00      0.00      0.00
                                0.00      0.00      0.00

     MDB     stress (kbar)      0.00      0.00      0.00
                                0.00      0.00      0.00
                                0.00      0.00      0.00

     3D-RISM stress (kbar)      0.00      0.00      0.00
                                0.00      0.00      0.00
                                0.00      0.00      0.00

     Damped Dynamics: convergence achieved in   8 steps

     End of damped dynamics calculation

     Final energy =   -1450.9353140913 Ry

Begin final coordinates
     new unit-cell volume =   1979.83334 a.u.^3 (   293.38103 Ang^3 )
     density =      4.87560 g/cm^3

CELL_PARAMETERS (angstrom)
   5.112458790   2.951679459   0.000000000
  -5.112458790   2.951679459   0.000000000
  -3.408305860   0.000000000   9.720822747

ATOMIC_POSITIONS (crystal)
Nb               0.0622774593       -0.0622774494       -0.2499962536
Nb               0.0622774494        0.3745511624       -0.2499962536
Nb              -0.3745511624       -0.0622774593       -0.2499962536
Nb              -0.0622774593        0.0622774494        0.2499962536
Nb              -0.0622774494       -0.3745511624        0.2499962536
Nb               0.3745511624        0.0622774593        0.2499962536
F               -0.1367608821        0.1367608821       -0.4102826463
F                0.3741643948       -0.3741643850       -0.3618269909
F                0.3741643850        0.1101557706       -0.3618269909
F               -0.1101557706       -0.3741643948       -0.3618269909
F                0.2885344523       -0.2885344523       -0.1343966431
F               -0.2015780362        0.2015780460       -0.1135427094
F               -0.2015780460       -0.2896133728       -0.1135427094
F                0.2896133728        0.2015780362       -0.1135427094
F                0.2015780362       -0.2015780460        0.1135427094
F                0.2015780460        0.2896133728        0.1135427094
F               -0.2896133728       -0.2015780362        0.1135427094
F               -0.2885344523        0.2885344523        0.1343966431
F               -0.3741643948        0.3741643850        0.3618269909
F               -0.3741643850       -0.1101557706        0.3618269909
F                0.1101557706        0.3741643948        0.3618269909
F                0.1367608821       -0.1367608821        0.4102826463
End final coordinates

     Writing all to output data dir ./out/Nb3F8.save/ :
     XML data file, charge density, pseudopotentials, collected wavefunctions

     General routines

     Parallel routines

   This run was terminated on:   9:56:57   2May2025

   JOB DONE.