     Program PWSCF v.7.3.1 starts on  7May2025 at 12:23:18

     Waiting for input...
     Reading input from standard input
Warning: card &CELL ignored
Warning: card / ignored
Warning: card &FCP ignored
Warning: card / ignored
Warning: card &RISM ignored
Warning: card / ignored

     Current dimensions of program PWSCF are:
     Max number of different atomic species (ntypx) = 10
     Max number of k-points (npk) =  40000
     Max angular momentum in pseudopotentials (lmaxx) =  4

     IMPORTANT: XC functional enforced from input :
     Exchange-correlation= PBE
                           (   1   4   3   4   0   0   0)
     Any further DFT definition will be discarded
     Please, verify this is what you really want

     Message from routine setup:
     using ibrav=0 with symmetry is DISCOURAGED, use correct ibrav instead
     Message from routine setup:
     Dynamics, you should have no symmetries

     K-points division:     npool     =      16
     R & G space division:  proc/nbgrp/npool/nimage =      24
     Subspace diagonalization in iterative solution of the eigenvalue problem:
     a serial algorithm will be used

     Message from routine divide_et_impera:
     suboptimal parallelization: some nodes have no k-points

     Using Slab Decomposition

     bravais-lattice index     =            0
     lattice parameter (alat)  =      12.7288  a.u.
     unit-cell volume          =    8140.0419 (a.u.)^3
     number of atoms/cell      =           22
     number of atomic types    =            2
     number of electrons       =       190.00
     number of Kohn-Sham states=          114
     kinetic-energy cutoff     =     100.0000  Ry
     charge density cutoff     =     400.0000  Ry
     scf convergence threshold =      1.0E-12
     mixing beta               =       0.7000
     number of iterations used =            8  plain     mixing
     energy convergence thresh.=      1.0E-04
     force convergence thresh. =      1.0E-06
     Exchange-correlation= PBE
                           (   1   4   3   4   0   0   0)
     nstep                     =           50

     celldm(1)=  12.728776  celldm(2)=   0.000000  celldm(3)=   0.000000
     celldm(4)=   0.000000  celldm(5)=   0.000000  celldm(6)=   0.000000

     crystal axes: (cart. coord. in units of alat)
               a(1) = (   0.866025   0.500000   0.000000 )
               a(2) = (  -0.866025   0.500000   0.000000 )
               a(3) = (   0.000000   0.000000   4.557598 )

     reciprocal axes: (cart. coord. in units 2 pi/alat)
               b(1) = (  0.577350  1.000000 -0.000000 )
               b(2) = ( -0.577350  1.000000  0.000000 )
               b(3) = (  0.000000 -0.000000  0.219414 )

     PseudoPot. # 1 for Nb read from file:
     /scratch-shared/mroesner/Nb3X8_cDFPT/pp/Nb_ONCV_PBE-1.2.upf
     MD5 check sum: 2c750ac0b6910ff4cf0ab5f6c4124a64
     Pseudo is Norm-conserving, Zval = 13.0
     Generated using ONCVPSP code by D. R. Hamann
     Using radial grid of  602 points,  6 beta functions with:
                l(1) =   0
                l(2) =   0
                l(3) =   1
                l(4) =   1
                l(5) =   2
                l(6) =   2

     PseudoPot. # 2 for Cl read from file:
     /scratch-shared/mroesner/Nb3X8_cDFPT/pp/Cl_ONCV_PBE-1.2.upf
     MD5 check sum: 0f993535b366f580ecbcdacce103c843
     Pseudo is Norm-conserving, Zval =  7.0
     Generated using ONCVPSP code by D. R. Hamann
     Using radial grid of  602 points,  4 beta functions with:
                l(1) =   0
                l(2) =   0
                l(3) =   1
                l(4) =   1

     atomic species   valence    mass     pseudopotential
     Nb               13.00    92.90637     Nb( 1.00)
     Cl                7.00    35.45270     Cl( 1.00)

     12 Sym. Ops., with inversion, found

                                    s                        frac. trans.

      isym =  1     identity

 cryst.   s( 1) = (     1          0          0      )
                  (     0          1          0      )
                  (     0          0          1      )

 cart.    s( 1) = (  1.0000000 -0.0000000  0.0000000 )
                  ( -0.0000000  1.0000000  0.0000000 )
                  (  0.0000000  0.0000000  1.0000000 )

      isym =  2     180 deg rotation - cart. axis [0,1,0]

[...]

      isym =  3     120 deg rotation - cryst. axis [0,0,1]

[...]

      isym =  6     180 deg rotation - cryst. axis [2,1,0]

[...]

      isym =  7     inversion

[...]

      isym =  8     inv. 180 deg rotation - cart. axis [0,1,0]

[...]

      isym =  9     inv. 120 deg rotation - cryst. axis [0,0,1]

 cryst.   s( 9) = (     0         -1          0      )
                  (     1          1          0      )
                  (     0          0         -1      )

 cart.    s( 9) = (  0.5000000  0.8660254  0.0000000 )
                  ( -0.8660254  0.5000000  0.0000000 )
                  (  0.0000000  0.0000000 -1.0000000 )

[...]

 cryst.   s(10) = (     1          1          0      )
                  (    -1          0          0      )
                  (     0          0         -1      )

 cart.    s(10) = (  0.5000000 -0.8660254  0.0000000 )
                  (  0.8660254  0.5000000  0.0000000 )
                  (  0.0000000  0.0000000 -1.0000000 )

[...]

      isym = 12     inv. 180 deg rotation - cryst. axis [2,1,0]

 cryst.   s(12) = (    -1          0          0      )
                  (     1          1          0      )
                  (     0          0          1      )

 cart.    s(12) = ( -0.5000000 -0.8660254  0.0000000 )
                  ( -0.8660254  0.5000000  0.0000000 )
                  (  0.0000000  0.0000000  1.0000000 )

   Cartesian axes

     site n.     atom                  positions (alat units)
         1        Nb     tau(   1) = (   0.2400258  -0.0000000  -0.4602816  )
         2        Nb     tau(   2) = (  -0.1200129   0.2078684  -0.4602816  )
         3        Nb     tau(   3) = (  -0.1200129  -0.2078684  -0.4602816  )
         4        Nb     tau(   4) = (  -0.2400258   0.0000000   0.4602816  )
         5        Nb     tau(   5) = (   0.1200129  -0.2078684   0.4602816  )
         6        Nb     tau(   6) = (   0.1200129   0.2078684   0.4602816  )
         7        Cl     tau(   7) = (   0.0000000   0.0000000  -0.7311363  )
         8        Cl     tau(   8) = (  -0.8627085   0.0000000  -0.6621205  )
         9        Cl     tau(   9) = (  -0.4346711  -0.2471275  -0.6621205  )
        10        Cl     tau(  10) = (  -0.4346711   0.2471275  -0.6621205  )
        11        Cl     tau(  11) = (   0.5773503  -0.0000000  -0.2583659  )
        12        Cl     tau(  12) = (  -0.2861597   0.0000000  -0.2173901  )
        13        Cl     tau(  13) = (   0.1430798  -0.2478216  -0.2173901  )
        14        Cl     tau(  14) = (   0.1430798   0.2478216  -0.2173901  )
        15        Cl     tau(  15) = (   0.2861597  -0.0000000   0.2173901  )
        16        Cl     tau(  16) = (  -0.1430798   0.2478216   0.2173901  )
        17        Cl     tau(  17) = (  -0.1430798  -0.2478216   0.2173901  )
        18        Cl     tau(  18) = (  -0.5773503   0.0000000   0.2583659  )
        19        Cl     tau(  19) = (   0.8627085  -0.0000000   0.6621205  )
        20        Cl     tau(  20) = (   0.4346711   0.2471275   0.6621205  )
        21        Cl     tau(  21) = (   0.4346711  -0.2471275   0.6621205  )
        22        Cl     tau(  22) = (   0.0000000   0.0000000   0.7311363  )

     DFT-D3 Dispersion Correction (no 3-body):
       Reference C6 values for interpolation:

         atom   Coordination number   C6
         Cl         0.000           184.69
         Cl         0.997           180.80
         Nb         0.000          2950.50
         Nb         1.954          1161.16
         Nb         2.922           857.79

       Values used:

         atom   Coordination number  R0_AB[au]  C6      C8
         Nb         8.263            3.647    857.79 111659.18
         Nb         8.263            3.647    857.79 111659.18
         Nb         8.263            3.647    857.79 111659.18
         Nb         8.263            3.647    857.79 111659.18
         Nb         8.263            3.647    857.79 111659.18
         Nb         8.263            3.647    857.79 111659.18
         Cl         3.145            2.933    180.80   7543.49
         Cl         2.255            2.933    180.80   7543.50
         Cl         2.255            2.933    180.80   7543.50
         Cl         2.255            2.933    180.80   7543.50
         Cl         3.115            2.933    180.80   7543.49
         Cl         2.309            2.933    180.80   7543.50
         Cl         2.309            2.933    180.80   7543.50
         Cl         2.309            2.933    180.80   7543.50
         Cl         2.309            2.933    180.80   7543.50
         Cl         2.309            2.933    180.80   7543.50
         Cl         2.309            2.933    180.80   7543.50
         Cl         3.115            2.933    180.80   7543.49
         Cl         2.255            2.933    180.80   7543.50
         Cl         2.255            2.933    180.80   7543.50
         Cl         2.255            2.933    180.80   7543.50
         Cl         3.145            2.933    180.80   7543.49

         Molecular C6 ( Ry / a.u.^6 ) =    150899.93

   Crystallographic axes

     site n.     atom                  positions (cryst. coord.)
         1        Nb     tau(   1) = (  0.1385790 -0.1385790 -0.1009921  )
         2        Nb     tau(   2) = (  0.1385790  0.2771579 -0.1009921  )
         3        Nb     tau(   3) = ( -0.2771579 -0.1385790 -0.1009921  )
         4        Nb     tau(   4) = ( -0.1385790  0.1385790  0.1009921  )
         5        Nb     tau(   5) = ( -0.1385790 -0.2771579  0.1009921  )
         6        Nb     tau(   6) = (  0.2771579  0.1385790  0.1009921  )
         7        Cl     tau(   7) = (  0.0000000  0.0000000 -0.1604214  )
         8        Cl     tau(   8) = ( -0.4980850  0.4980850 -0.1452784  )
         9        Cl     tau(   9) = ( -0.4980850  0.0038300 -0.1452784  )
        10        Cl     tau(  10) = ( -0.0038300  0.4980850 -0.1452784  )
        11        Cl     tau(  11) = (  0.3333333 -0.3333333 -0.0566890  )
        12        Cl     tau(  12) = ( -0.1652144  0.1652144 -0.0476984  )
        13        Cl     tau(  13) = ( -0.1652144 -0.3304287 -0.0476984  )
        14        Cl     tau(  14) = (  0.3304287  0.1652144 -0.0476984  )
        15        Cl     tau(  15) = (  0.1652144 -0.1652144  0.0476984  )
        16        Cl     tau(  16) = (  0.1652144  0.3304287  0.0476984  )
        17        Cl     tau(  17) = ( -0.3304287 -0.1652144  0.0476984  )
        18        Cl     tau(  18) = ( -0.3333333  0.3333333  0.0566890  )
        19        Cl     tau(  19) = (  0.4980850 -0.4980850  0.1452784  )
        20        Cl     tau(  20) = (  0.4980850 -0.0038300  0.1452784  )
        21        Cl     tau(  21) = (  0.0038300 -0.4980850  0.1452784  )
        22        Cl     tau(  22) = (  0.0000000  0.0000000  0.1604214  )

     number of k points=     7  Marzari-Vanderbilt smearing, width (Ry)=  0.0037
[...]
     atom    7 type  2   force =     0.00000000    0.00000000    0.43884532
     atom    8 type  2   force =    -0.17321290    0.00000000    0.28085469
     atom    9 type  2   force =     0.08660645   -0.15000677    0.28085469
     atom   10 type  2   force =     0.08660645    0.15000677    0.28085469
     atom   11 type  2   force =     0.00000000    0.00000000   -0.35268494
     atom   12 type  2   force =     0.19979629   -0.00000000   -0.28471465
     atom   13 type  2   force =    -0.09989815    0.17302866   -0.28471465
     atom   14 type  2   force =    -0.09989815   -0.17302866   -0.28471465
     atom   15 type  2   force =    -0.19979629    0.00000000    0.28471465
     atom   16 type  2   force =     0.09989815   -0.17302866    0.28471465
     atom   17 type  2   force =     0.09989815    0.17302866    0.28471465
     atom   18 type  2   force =     0.00000000    0.00000000    0.35268494
     atom   19 type  2   force =     0.17321290    0.00000000   -0.28085469
     atom   20 type  2   force =    -0.08660645    0.15000677   -0.28085469
     atom   21 type  2   force =    -0.08660645   -0.15000677   -0.28085469
     atom   22 type  2   force =     0.00000000    0.00000000   -0.43884532
     The ionic contribution  to forces
     atom    1 type  1   force =     9.36046970   -0.00000000  -66.99893831
     atom    2 type  1   force =    -4.68023485    8.10640455  -66.99893831
     atom    3 type  1   force =    -4.68023485   -8.10640455  -66.99893831
     atom    4 type  1   force =    -9.36046970    0.00000000   66.99893831
     atom    5 type  1   force =     4.68023485   -8.10640455   66.99893831
     atom    6 type  1   force =     4.68023485    8.10640455   66.99893831
     atom    7 type  2   force =    -0.00000000    0.00000000  -71.04244333
     atom    8 type  2   force =     3.53908713   -0.00000000  -59.94467664
     atom    9 type  2   force =    -1.76954357    3.06493936  -59.94467664
     atom   10 type  2   force =    -1.76954357   -3.06493936  -59.94467664
     atom   11 type  2   force =     0.00000000   -0.00000000  -10.41721359
     atom   12 type  2   force =    -6.81243592   -0.00000000   -6.77526984
     atom   13 type  2   force =     3.40621796   -5.89974257   -6.77526984
     atom   14 type  2   force =     3.40621796    5.89974257   -6.77526984
     atom   15 type  2   force =     6.81243592    0.00000000    6.77526984
     atom   16 type  2   force =    -3.40621796    5.89974257    6.77526984
     atom   17 type  2   force =    -3.40621796   -5.89974257    6.77526984
     atom   18 type  2   force =    -0.00000000    0.00000000   10.41721359
     atom   19 type  2   force =    -3.53908713    0.00000000   59.94467664
     atom   20 type  2   force =     1.76954357   -3.06493936   59.94467664
     atom   21 type  2   force =     1.76954357    3.06493936   59.94467664
     atom   22 type  2   force =     0.00000000   -0.00000000   71.04244333
     The local contribution  to forces
     atom    1 type  1   force =    -9.12428547    0.00000000   67.03435130
     atom    2 type  1   force =     4.56214274   -7.90186301   67.03435130
     atom    3 type  1   force =     4.56214274    7.90186301   67.03435130
     atom    4 type  1   force =     9.12428547   -0.00000000  -67.03435130
     atom    5 type  1   force =    -4.56214274    7.90186301  -67.03435130
     atom    6 type  1   force =    -4.56214274   -7.90186301  -67.03435130
     atom    7 type  2   force =    -0.00000000    0.00000000   70.60238056
     atom    8 type  2   force =    -3.36642351   -0.00000000   59.66234040
     atom    9 type  2   force =     1.68321175   -2.91540828   59.66234040
     atom   10 type  2   force =     1.68321175    2.91540828   59.66234040
     atom   11 type  2   force =     0.00000000    0.00000000   10.76764711
     atom   12 type  2   force =     6.61358437    0.00000000    7.05931608
     atom   13 type  2   force =    -3.30679218    5.72753207    7.05931608
     atom   14 type  2   force =    -3.30679218   -5.72753207    7.05931608
     atom   15 type  2   force =    -6.61358437   -0.00000000   -7.05931608
     atom   16 type  2   force =     3.30679218   -5.72753207   -7.05931608
     atom   17 type  2   force =     3.30679218    5.72753207   -7.05931608
     atom   18 type  2   force =    -0.00000000   -0.00000000  -10.76764711
     atom   19 type  2   force =     3.36642351    0.00000000  -59.66234040
     atom   20 type  2   force =    -1.68321175    2.91540828  -59.66234040
     atom   21 type  2   force =    -1.68321175   -2.91540828  -59.66234040
     atom   22 type  2   force =     0.00000000   -0.00000000  -70.60238056
     The core correction contribution to forces
     atom    1 type  1   force =     0.00000000    0.00000000    0.00000000
     atom    2 type  1   force =     0.00000000    0.00000000    0.00000000
     atom    3 type  1   force =     0.00000000    0.00000000    0.00000000
     atom    4 type  1   force =     0.00000000    0.00000000    0.00000000
     atom    5 type  1   force =     0.00000000    0.00000000    0.00000000
     atom    6 type  1   force =     0.00000000    0.00000000    0.00000000
     atom    7 type  2   force =     0.00000000    0.00000000    0.00000000
     atom    8 type  2   force =     0.00000000    0.00000000    0.00000000
     atom    9 type  2   force =     0.00000000    0.00000000    0.00000000
     atom   10 type  2   force =     0.00000000    0.00000000    0.00000000
     atom   11 type  2   force =     0.00000000    0.00000000    0.00000000
     atom   12 type  2   force =     0.00000000    0.00000000    0.00000000
     atom   13 type  2   force =     0.00000000    0.00000000    0.00000000
     atom   14 type  2   force =     0.00000000    0.00000000    0.00000000
     atom   15 type  2   force =     0.00000000    0.00000000    0.00000000
     atom   16 type  2   force =     0.00000000    0.00000000    0.00000000
     atom   17 type  2   force =     0.00000000    0.00000000    0.00000000
     atom   18 type  2   force =     0.00000000    0.00000000    0.00000000
     atom   19 type  2   force =     0.00000000    0.00000000    0.00000000
     atom   20 type  2   force =     0.00000000    0.00000000    0.00000000
     atom   21 type  2   force =     0.00000000    0.00000000    0.00000000
     atom   22 type  2   force =     0.00000000    0.00000000    0.00000000
     The Hubbard contrib.    to forces
     atom    1 type  1   force =     0.00000000    0.00000000    0.00000000
     atom    2 type  1   force =     0.00000000    0.00000000    0.00000000
     atom    3 type  1   force =     0.00000000    0.00000000    0.00000000
     atom    4 type  1   force =     0.00000000    0.00000000    0.00000000
     atom    5 type  1   force =     0.00000000    0.00000000    0.00000000
     atom    6 type  1   force =     0.00000000    0.00000000    0.00000000
     atom    7 type  2   force =     0.00000000    0.00000000    0.00000000
     atom    8 type  2   force =     0.00000000    0.00000000    0.00000000
     atom    9 type  2   force =     0.00000000    0.00000000    0.00000000
     atom   10 type  2   force =     0.00000000    0.00000000    0.00000000
     atom   11 type  2   force =     0.00000000    0.00000000    0.00000000
     atom   12 type  2   force =     0.00000000    0.00000000    0.00000000
     atom   13 type  2   force =     0.00000000    0.00000000    0.00000000
     atom   14 type  2   force =     0.00000000    0.00000000    0.00000000
     atom   15 type  2   force =     0.00000000    0.00000000    0.00000000
     atom   16 type  2   force =     0.00000000    0.00000000    0.00000000
     atom   17 type  2   force =     0.00000000    0.00000000    0.00000000
     atom   18 type  2   force =     0.00000000    0.00000000    0.00000000
     atom   19 type  2   force =     0.00000000    0.00000000    0.00000000
     atom   20 type  2   force =     0.00000000    0.00000000    0.00000000
     atom   21 type  2   force =     0.00000000    0.00000000    0.00000000
     atom   22 type  2   force =     0.00000000    0.00000000    0.00000000
     The SCF correction term to forces
     atom    1 type  1   force =    -0.00000013   -0.00000000    0.00000107
     atom    2 type  1   force =     0.00000007   -0.00000011    0.00000107
     atom    3 type  1   force =     0.00000007    0.00000011    0.00000107
     atom    4 type  1   force =     0.00000013    0.00000000   -0.00000107
     atom    5 type  1   force =    -0.00000007    0.00000011   -0.00000107
     atom    6 type  1   force =    -0.00000007   -0.00000011   -0.00000107
     atom    7 type  2   force =    -0.00000000    0.00000000    0.00000057
     atom    8 type  2   force =    -0.00000003   -0.00000000    0.00000055
     atom    9 type  2   force =     0.00000001   -0.00000002    0.00000055
     atom   10 type  2   force =     0.00000001    0.00000002    0.00000055
     atom   11 type  2   force =     0.00000000    0.00000000    0.00000022
     atom   12 type  2   force =     0.00000017   -0.00000000    0.00000023
     atom   13 type  2   force =    -0.00000009    0.00000015    0.00000023
     atom   14 type  2   force =    -0.00000009   -0.00000015    0.00000023
     atom   15 type  2   force =    -0.00000017    0.00000000   -0.00000023
     atom   16 type  2   force =     0.00000009   -0.00000015   -0.00000023
     atom   17 type  2   force =     0.00000009    0.00000015   -0.00000023
     atom   18 type  2   force =    -0.00000000   -0.00000000   -0.00000022
     atom   19 type  2   force =     0.00000003    0.00000000   -0.00000055
     atom   20 type  2   force =    -0.00000001    0.00000002   -0.00000055
     atom   21 type  2   force =    -0.00000001   -0.00000002   -0.00000055
     atom   22 type  2   force =    -0.00000000   -0.00000000   -0.00000057

     DFT-D3 dispersion contribution to forces:
     atom    1 type  1   force =    -0.00223669   -0.00000000    0.00254911
     atom    2 type  1   force =     0.00111834   -0.00193703    0.00254911
     atom    3 type  1   force =     0.00111834    0.00193703    0.00254911
     atom    4 type  1   force =     0.00223669   -0.00000000   -0.00254911
     atom    5 type  1   force =    -0.00111834    0.00193703   -0.00254911
     atom    6 type  1   force =    -0.00111834   -0.00193703   -0.00254911
     atom    7 type  2   force =    -0.00000000    0.00000000    0.00121740
     atom    8 type  2   force =     0.00055011   -0.00000000    0.00148129
     atom    9 type  2   force =    -0.00027506    0.00047641    0.00148129
     atom   10 type  2   force =    -0.00027506   -0.00047641    0.00148129
     atom   11 type  2   force =     0.00000000   -0.00000000    0.00225100
     atom   12 type  2   force =    -0.00094466    0.00000000    0.00066867
     atom   13 type  2   force =     0.00047233   -0.00081810    0.00066867
     atom   14 type  2   force =     0.00047233    0.00081810    0.00066867
     atom   15 type  2   force =     0.00094466    0.00000000   -0.00066867
     atom   16 type  2   force =    -0.00047233    0.00081810   -0.00066867
     atom   17 type  2   force =    -0.00047233   -0.00081810   -0.00066867
     atom   18 type  2   force =    -0.00000000    0.00000000   -0.00225100
     atom   19 type  2   force =    -0.00055011    0.00000000   -0.00148129
     atom   20 type  2   force =     0.00027506   -0.00047641   -0.00148129
     atom   21 type  2   force =     0.00027506    0.00047641   -0.00148129
     atom   22 type  2   force =     0.00000000   -0.00000000   -0.00121740

     Total force =     0.000003     Total SCF correction =     0.000003

     DFT-D3 dispersion Force =     0.010253
     SCF correction compared to forces is large: reduce conv_thr to get better values

     Computing stress (Cartesian axis) and pressure

          total   stress  (Ry/bohr**3)                   (kbar)     P=        1.21
   0.00001271   0.00000000  -0.00000000            1.87        0.00       -0.00
  -0.00000000   0.00001271   0.00000000           -0.00        1.87        0.00
  -0.00000000   0.00000000  -0.00000084           -0.00        0.00       -0.12

     kinetic stress (kbar)   4688.74     -0.00      0.00
                               -0.00   4688.74      0.00
                                0.00      0.00   4646.94

     local   stress (kbar)-226228.75      0.00      0.00
                                0.00-226228.75      0.00
                                0.00      0.00 218310.76

     nonloc. stress (kbar)   4263.40     -0.00     -0.00
                               -0.00   4263.40      0.00
                               -0.00      0.00   4276.91

     hartree stress (kbar) 111434.86      0.00      0.00
                                0.00 111434.86     -0.00
                                0.00     -0.00-108507.66

     exc-cor stress (kbar)   -992.43     -0.00      0.00
                               -0.00   -992.43     -0.00
                                0.00     -0.00   -994.21

     corecor stress (kbar)      0.00      0.00      0.00
                                0.00      0.00      0.00
                                0.00      0.00      0.00

     ewald   stress (kbar) 106840.85     -0.00     -0.00
                               -0.00 106840.85      0.00
                               -0.00      0.00-117728.98

     hubbard stress (kbar)      0.00      0.00      0.00
                                0.00      0.00      0.00
                                0.00      0.00      0.00

     DFT-D   stress (kbar)     -4.79      0.00     -0.00
                                0.00     -4.79     -0.00
                               -0.00     -0.00     -3.89

     XDM     stress (kbar)      0.00      0.00      0.00
                                0.00      0.00      0.00
                                0.00      0.00      0.00

     dft-nl  stress (kbar)      0.00      0.00      0.00
                                0.00      0.00      0.00
                                0.00      0.00      0.00

     TS-vdW  stress (kbar)      0.00      0.00      0.00
                                0.00      0.00      0.00
                                0.00      0.00      0.00

     MDB     stress (kbar)      0.00      0.00      0.00
                                0.00      0.00      0.00
                                0.00      0.00      0.00

     3D-RISM stress (kbar)      0.00      0.00      0.00
                                0.00      0.00      0.00
                                0.00      0.00      0.00

     Damped Dynamics: convergence achieved in  33 steps

     End of damped dynamics calculation

     Final energy =   -1170.2191955617 Ry

Begin final coordinates
     new unit-cell volume =   8140.04187 a.u.^3 (  1206.22976 Ang^3 )
     density =      1.54828 g/cm^3

CELL_PARAMETERS (angstrom)
   5.833355223   3.367889208   0.000000000
  -5.833355223   3.367889208   0.000000000
   0.000000000   0.000000000  30.698971239

ATOMIC_POSITIONS (crystal)
Nb               0.1385203417       -0.1385203417       -0.1015446864
Nb               0.1385203417        0.2770406835       -0.1015446864
Nb              -0.2770406835       -0.1385203417       -0.1015446864
Nb              -0.1385203417        0.1385203417        0.1015446864
Nb              -0.1385203417       -0.2770406835        0.1015446864
Nb               0.2770406835        0.1385203417        0.1015446864
Cl               0.0000000000        0.0000000000       -0.1617118246
Cl              -0.4987912784        0.4987912784       -0.1461780446
Cl              -0.4987912784        0.0024174433       -0.1461780446
Cl              -0.0024174433        0.4987912784       -0.1461780446
Cl               0.3333333333       -0.3333333333       -0.0570331600
Cl              -0.1653188021        0.1653188021       -0.0480550945
Cl              -0.1653188021       -0.3306376043       -0.0480550945
Cl               0.3306376043        0.1653188021       -0.0480550945
Cl               0.1653188021       -0.1653188021        0.0480550945
Cl               0.1653188021        0.3306376043        0.0480550945
Cl              -0.3306376043       -0.1653188021        0.0480550945
Cl              -0.3333333333        0.3333333333        0.0570331600
Cl               0.4987912784       -0.4987912784        0.1461780446
Cl               0.4987912784       -0.0024174433        0.1461780446
Cl               0.0024174433       -0.4987912784        0.1461780446
Cl               0.0000000000        0.0000000000        0.1617118246
End final coordinates

     Writing all to output data dir ./out/Nb3Cl8.save/ :
     XML data file, charge density, pseudopotentials, collected wavefunctions

     General routines

     Parallel routines

   This run was terminated on:  12:40:11   7May2025

   JOB DONE.