     Program PWSCF v.7.3.1 starts on  7May2025 at 23:16:28

     Waiting for input...
     Reading input from standard input
Warning: card &CELL ignored
Warning: card / ignored
Warning: card &FCP ignored
Warning: card / ignored
Warning: card &RISM ignored
Warning: card / ignored

     Current dimensions of program PWSCF are:
     Max number of different atomic species (ntypx) = 10
     Max number of k-points (npk) =  40000
     Max angular momentum in pseudopotentials (lmaxx) =  4

     IMPORTANT: XC functional enforced from input :
     Exchange-correlation= PBE
                           (   1   4   3   4   0   0   0)
     Any further DFT definition will be discarded
     Please, verify this is what you really want

     Message from routine setup:
     using ibrav=0 with symmetry is DISCOURAGED, use correct ibrav instead
     Message from routine setup:
     Dynamics, you should have no symmetries

     K-points division:     npool     =      16
     R & G space division:  proc/nbgrp/npool/nimage =      24
     Subspace diagonalization in iterative solution of the eigenvalue problem:
     a serial algorithm will be used

     Message from routine divide_et_impera:
     suboptimal parallelization: some nodes have no k-points

     Using Slab Decomposition

     bravais-lattice index     =            0
     lattice parameter (alat)  =      12.7288  a.u.
     unit-cell volume          =    8140.0419 (a.u.)^3
     number of atoms/cell      =           11
     number of atomic types    =            2
     number of electrons       =        95.00
     number of Kohn-Sham states=           58
     kinetic-energy cutoff     =     100.0000  Ry
     charge density cutoff     =     400.0000  Ry
     scf convergence threshold =      1.0E-12
     mixing beta               =       0.7000
     number of iterations used =            8  plain     mixing
     energy convergence thresh.=      1.0E-04
     force convergence thresh. =      1.0E-06
     Exchange-correlation= PBE
                           (   1   4   3   4   0   0   0)
     nstep                     =           50

     celldm(1)=  12.728776  celldm(2)=   0.000000  celldm(3)=   0.000000
     celldm(4)=   0.000000  celldm(5)=   0.000000  celldm(6)=   0.000000

     crystal axes: (cart. coord. in units of alat)
               a(1) = (   0.866025   0.500000   0.000000 )
               a(2) = (  -0.866025   0.500000   0.000000 )
               a(3) = (   0.000000   0.000000   4.557598 )

     reciprocal axes: (cart. coord. in units 2 pi/alat)
               b(1) = (  0.577350  1.000000 -0.000000 )
               b(2) = ( -0.577350  1.000000  0.000000 )
               b(3) = (  0.000000 -0.000000  0.219414 )

     PseudoPot. # 1 for Nb read from file:
     /scratch-shared/mroesner/Nb3X8_cDFPT/pp/Nb_ONCV_PBE-1.2.upf
     MD5 check sum: 2c750ac0b6910ff4cf0ab5f6c4124a64
     Pseudo is Norm-conserving, Zval = 13.0
     Generated using ONCVPSP code by D. R. Hamann
     Using radial grid of  602 points,  6 beta functions with:
                l(1) =   0
                l(2) =   0
                l(3) =   1
                l(4) =   1
                l(5) =   2
                l(6) =   2

     PseudoPot. # 2 for Cl read from file:
     /scratch-shared/mroesner/Nb3X8_cDFPT/pp/Cl_ONCV_PBE-1.2.upf
     MD5 check sum: 0f993535b366f580ecbcdacce103c843
     Pseudo is Norm-conserving, Zval =  7.0
     Generated using ONCVPSP code by D. R. Hamann
     Using radial grid of  602 points,  4 beta functions with:
                l(1) =   0
                l(2) =   0
                l(3) =   1
                l(4) =   1

     atomic species   valence    mass     pseudopotential
     Nb               13.00    92.90637     Nb( 1.00)
     Cl                7.00    35.45270     Cl( 1.00)

      6 Sym. Ops. (no inversion) found

                                    s                        frac. trans.

      isym =  1     identity

 cryst.   s( 1) = (     1          0          0      )
                  (     0          1          0      )
                  (     0          0          1      )

 cart.    s( 1) = (  1.0000000 -0.0000000  0.0000000 )
                  ( -0.0000000  1.0000000  0.0000000 )
                  (  0.0000000  0.0000000  1.0000000 )

      isym =  2     120 deg rotation - cryst. axis [0,0,1]

[...]

      isym =  3     120 deg rotation - cryst. axis [0,0,-1]

[...]

      isym =  4     inv. 180 deg rotation - cart. axis [0,1,0]

[...]

      isym =  5     inv. 180 deg rotation - cryst. axis [1,-1,0]

[...]

      isym =  6     inv. 180 deg rotation - cryst. axis [2,1,0]

 cryst.   s( 6) = (    -1          0          0      )
                  (     1          1          0      )
                  (     0          0          1      )

 cart.    s( 6) = ( -0.5000000 -0.8660254  0.0000000 )
                  ( -0.8660254  0.5000000  0.0000000 )
                  (  0.0000000  0.0000000  1.0000000 )

   Cartesian axes

     site n.     atom                  positions (alat units)
         1        Nb     tau(   1) = (  -0.2399243   0.0000000   0.4627999  )
         2        Nb     tau(   2) = (   0.1199621  -0.2077805   0.4627999  )
         3        Nb     tau(   3) = (   0.1199621   0.2077805   0.4627999  )
         4        Cl     tau(   4) = (   0.2863406  -0.0000000   0.2190158  )
         5        Cl     tau(   5) = (  -0.1431703   0.2479782   0.2190158  )
         6        Cl     tau(   6) = (  -0.1431703  -0.2479782   0.2190158  )
         7        Cl     tau(   7) = (  -0.5773503   0.0000000   0.2599342  )
         8        Cl     tau(   8) = (   0.8639318  -0.0000000   0.6662208  )
         9        Cl     tau(   9) = (   0.4340595   0.2481869   0.6662208  )
        10        Cl     tau(  10) = (   0.4340595  -0.2481869   0.6662208  )
        11        Cl     tau(  11) = (   0.0000000   0.0000000   0.7370175  )

     DFT-D3 Dispersion Correction (no 3-body):
       Reference C6 values for interpolation:

         atom   Coordination number   C6
         Cl         0.000           184.69
         Cl         0.997           180.80
         Nb         0.000          2950.50
         Nb         1.954          1161.16
         Nb         2.922           857.79

       Values used:

         atom   Coordination number  R0_AB[au]  C6      C8
         Nb         8.240            3.647    857.79 111659.18
         Nb         8.240            3.647    857.79 111659.18
         Nb         8.240            3.647    857.79 111659.18
         Cl         2.246            2.933    180.80   7543.50
         Cl         2.246            2.933    180.80   7543.50
         Cl         2.246            2.933    180.80   7543.50
         Cl         3.074            2.933    180.80   7543.49
         Cl         2.247            2.933    180.80   7543.50
         Cl         2.247            2.933    180.80   7543.50
         Cl         2.247            2.933    180.80   7543.50
         Cl         3.135            2.933    180.80   7543.49

         Molecular C6 ( Ry / a.u.^6 ) =     37724.98

   Crystallographic axes

     site n.     atom                  positions (cryst. coord.)
         1        Nb     tau(   1) = ( -0.1385203  0.1385203  0.1015447  )
         2        Nb     tau(   2) = ( -0.1385203 -0.2770407  0.1015447  )
         3        Nb     tau(   3) = (  0.2770407  0.1385203  0.1015447  )
         4        Cl     tau(   4) = (  0.1653188 -0.1653188  0.0480551  )
         5        Cl     tau(   5) = (  0.1653188  0.3306376  0.0480551  )
         6        Cl     tau(   6) = ( -0.3306376 -0.1653188  0.0480551  )
         7        Cl     tau(   7) = ( -0.3333333  0.3333333  0.0570332  )
         8        Cl     tau(   8) = (  0.4987913 -0.4987913  0.1461780  )
         9        Cl     tau(   9) = (  0.4987913 -0.0024174  0.1461780  )
        10        Cl     tau(  10) = (  0.0024174 -0.4987913  0.1461780  )
        11        Cl     tau(  11) = (  0.0000000  0.0000000  0.1617118  )

     number of k points=     7  Marzari-Vanderbilt smearing, width (Ry)=  0.0037
                       cart. coord. in units 2pi/alat
        k(    1) = (   0.0000000   0.0000000   0.0000000), wk =   0.0555556
        k(    2) = (  -0.0962250   0.1666667   0.0000000), wk =   0.3333333
        k(    3) = (  -0.1924501   0.3333333   0.0000000), wk =   0.3333333
        k(    4) = (   0.2886751  -0.5000000   0.0000000), wk =   0.1666667
        k(    5) = (  -0.0000000   0.3333333   0.0000000), wk =   0.3333333
        k(    6) = (  -0.0962250   0.5000000   0.0000000), wk =   0.6666667
        k(    7) = (  -0.0000000   0.6666667   0.0000000), wk =   0.1111111

                       cryst. coord.
        k(    1) = (   0.0000000   0.0000000   0.0000000), wk =   0.0555556
        k(    2) = (   0.0000000   0.1666667   0.0000000), wk =   0.3333333
        k(    3) = (   0.0000000   0.3333333   0.0000000), wk =   0.3333333
        k(    4) = (   0.0000000  -0.5000000   0.0000000), wk =   0.1666667
        k(    5) = (   0.1666667   0.1666667   0.0000000), wk =   0.3333333
        k(    6) = (   0.1666667   0.3333333   0.0000000), wk =   0.6666667
        k(    7) = (   0.3333333   0.3333333   0.0000000), wk =   0.1111111

     Initial potential from superposition of free atoms

     starting charge      94.6161, renormalised to      95.0000

     negative rho (up, down):  1.461E-03 0.000E+00
     Starting wfcs are random

     Self-consistent Calculation

     iteration #  1     ecut=   100.00 Ry     beta= 0.70
     Davidson diagonalization with overlap

     ethr =  1.00E-02,  avg # of iterations = 17.9

     Threshold (ethr) on eigenvalues was too large:
     Diagonalizing with lowered threshold

     Davidson diagonalization with overlap

[...]

     negative rho (up, down):  2.815E-04 0.000E+00

     total energy              =    -584.97801275 Ry
     estimated scf accuracy    <       0.31543456 Ry

[...]

     End of self-consistent calculation

          k = 0.0000 0.0000 0.0000 (137531 PWs)   bands (ev):

   -58.0964 -57.9930 -57.9930 -34.5688 -34.3303 -34.3303 -34.3106 -34.1718
   -34.1718 -33.9240 -33.7656 -33.7656 -19.6591 -19.0837 -18.5846 -18.4679
   -18.4679 -18.2801 -17.9306 -17.9306  -9.2038  -9.2038  -8.8503  -8.6799
    -8.2311  -8.2311  -8.0943  -7.9117  -7.6475  -7.6475  -7.1803  -6.9962
    -6.9962  -6.5887  -6.4837  -6.4837  -6.2132  -6.2132  -6.1371  -6.0404
    -5.4795  -5.4795  -4.9085  -4.9085  -3.8624  -3.3004  -3.3004  -1.9709
    -1.1674  -1.1674  -0.1846  -0.1846  -0.1627   0.2314   0.2314   0.2491
     0.5877   0.5877

     occupation numbers
     1.0000   1.0000   1.0000   1.0000   1.0000   1.0000   1.0000   1.0000
     1.0000   1.0000   1.0000   1.0000   1.0000   1.0000   1.0000   1.0000
     1.0000   1.0000   1.0000   1.0000   1.0000   1.0000   1.0000   1.0000
     1.0000   1.0000   1.0000   1.0000   1.0000   1.0000   1.0000   1.0000
     1.0000   1.0000   1.0000   1.0000   1.0000   1.0000   1.0000   1.0000
     1.0000   1.0000   1.0000   1.0000   1.0000   1.0000   1.0000   0.0001
     0.0000   0.0000   0.0000   0.0000   0.0000   0.0000   0.0000   0.0000
     0.0000   0.0000

          k =-0.0962 0.1667 0.0000 (137449 PWs)   bands (ev):

[...]

[...]
                                0.00      0.00      0.00
                                0.00      0.00      0.00

     MDB     stress (kbar)      0.00      0.00      0.00
                                0.00      0.00      0.00
                                0.00      0.00      0.00

     3D-RISM stress (kbar)      0.00      0.00      0.00
                                0.00      0.00      0.00
                                0.00      0.00      0.00

     Damped Dynamics Calculation

     Entering Dynamics:    iteration =     1

ATOMIC_POSITIONS (crystal)
Nb              -0.1385982347        0.1385982347        0.1016007082
Nb              -0.1385982347       -0.2771964694        0.1016007082
Nb               0.2771964694        0.1385982347        0.1016007082
Cl               0.1653341992       -0.1653341992        0.0480159145
Cl               0.1653341992        0.3306683986        0.0480159145
Cl              -0.3306683986       -0.1653341992        0.0480159145
Cl              -0.3333333333        0.3333333333        0.0570314089
Cl               0.4987869785       -0.4987869785        0.1461612064
Cl               0.4987869785       -0.0024260431        0.1461612064
Cl               0.0024260431       -0.4987869785        0.1461612064
Cl               0.0000000000        0.0000000000        0.1617135649

     Writing config-only to output data dir ./out/Nb3Cl8.save/ :
     XML data file
     NEW-OLD atomic charge density approx. for the potential

[...]

     <vel(dt)|acc(dt)> =   0.97932957

[...]

     Writing config-only to output data dir ./out/Nb3Cl8.save/ :
     XML data file

     first order wave-functions extrapolation
     NEW-OLD atomic charge density approx. for the potential

[...]

     second order wave-functions extrapolation
     NEW-OLD atomic charge density approx. for the potential

[...]

     DFT-D3 dispersion Force =     0.005454
     SCF correction compared to forces is large: reduce conv_thr to get better values

[...]

     DFT-D3 dispersion Force =     0.005454

[...]

     negative rho (up, down):  1.393E-08 0.000E+00

[...]

     Entering Dynamics:    iteration =    24

     <vel(dt)|acc(dt)> =   0.81045534

ATOMIC_POSITIONS (crystal)
Nb              -0.1387052481        0.1387052481        0.1018286942
Nb              -0.1387052481       -0.2774104962        0.1018286942
Nb               0.2774104962        0.1387052481        0.1018286942
Cl               0.1645703946       -0.1645703946        0.0477567244
Cl               0.1645703946        0.3291407893        0.0477567244
Cl              -0.3291407893       -0.1645703946        0.0477567244
Cl              -0.3333333333        0.3333333333        0.0572528357
Cl               0.4982847258       -0.4982847258        0.1460204646
Cl               0.4982847258       -0.0034305485        0.1460204646
Cl               0.0034305485       -0.4982847258        0.1460204646
Cl               0.0000000000       -0.0000000000        0.1620079760

     Writing config-only to output data dir ./out/Nb3Cl8.save/ :
     XML data file

     second order wave-functions extrapolation
     NEW-OLD atomic charge density approx. for the potential

     Self-consistent Calculation

[...]

     Threshold (ethr) on eigenvalues was too large:
     Diagonalizing with lowered threshold

     Davidson diagonalization with overlap

[...]

     total energy              =    -585.08253836 Ry
     estimated scf accuracy    <          1.2E-12 Ry

     iteration #  3     ecut=   100.00 Ry     beta= 0.70
     Davidson diagonalization with overlap

     ethr =  1.00E-13,  avg # of iterations =  1.0

     End of self-consistent calculation

[...]

          k = 0.2887-0.5000 0.0000 (137556 PWs)   bands (ev):

[...]

          k =-0.0000 0.6667 0.0000 (137418 PWs)   bands (ev):

   -58.0991 -58.0002 -57.9987 -34.5388 -34.3164 -34.3139 -34.3046 -34.1824
   -34.1791 -33.9432 -33.8081 -33.7877 -19.5610 -18.8839 -18.6712 -18.5901
   -18.3759 -18.2456 -18.1508 -17.9651  -8.8904  -8.5961  -8.4914  -8.2570
    -8.2139  -7.9129  -7.8680  -7.7483  -7.5609  -7.4909  -7.4577  -7.2342
    -7.1190  -7.0960  -6.9733  -6.6267  -6.5035  -6.3175  -6.2983  -6.1181
    -5.8336  -5.6238  -5.5380  -5.2986  -4.0251  -3.2777  -3.1816  -2.1165
    -1.2359  -0.8914  -0.4479  -0.4256  -0.3703  -0.2422  -0.1742   0.2657
     0.6978   0.7345

     occupation numbers
     1.0000   1.0000   1.0000   1.0000   1.0000   1.0000   1.0000   1.0000
     1.0000   1.0000   1.0000   1.0000   1.0000   1.0000   1.0000   1.0000
     1.0000   1.0000   1.0000   1.0000   1.0000   1.0000   1.0000   1.0000
     1.0000   1.0000   1.0000   1.0000   1.0000   1.0000   1.0000   1.0000
     1.0000   1.0000   1.0000   1.0000   1.0000   1.0000   1.0000   1.0000
     1.0000   1.0000   1.0000   1.0000   1.0000   1.0000   1.0000   0.6335
     0.0000   0.0000   0.0000   0.0000   0.0000   0.0000   0.0000   0.0000
     0.0000   0.0000

     the Fermi energy is    -2.1006 ev

!    total energy              =    -585.08253836 Ry
     estimated scf accuracy    <          3.0E-13 Ry
     smearing contrib. (-TS)   =      -0.00037882 Ry
     internal energy E=F+TS    =    -585.08215954 Ry

     convergence has been achieved in   3 iterations

     Forces acting on atoms (cartesian axes, Ry/au):

     atom    1 type  1   force =    -0.00000003   -0.00000000    0.00000009
     atom    2 type  1   force =     0.00000002   -0.00000003    0.00000009
     atom    3 type  1   force =     0.00000002    0.00000003    0.00000009
     atom    4 type  2   force =     0.00000032    0.00000000    0.00000029
     atom    5 type  2   force =    -0.00000016    0.00000028    0.00000029
     atom    6 type  2   force =    -0.00000016   -0.00000028    0.00000029
     atom    7 type  2   force =     0.00000000   -0.00000000    0.00000056
     atom    8 type  2   force =    -0.00000006    0.00000000   -0.00000063
     atom    9 type  2   force =     0.00000003   -0.00000006   -0.00000063
     atom   10 type  2   force =     0.00000003    0.00000006   -0.00000063
     atom   11 type  2   force =     0.00000000    0.00000000    0.00000018
     The non-local contrib.  to forces
     atom    1 type  1   force =     0.23601793    0.00000000    0.03862685
     atom    2 type  1   force =    -0.11800896    0.20439752    0.03862685
     atom    3 type  1   force =    -0.11800896   -0.20439752    0.03862685
     atom    4 type  2   force =    -0.19094025    0.00000000    0.28955151
     atom    5 type  2   force =     0.09547013   -0.16535911    0.28955151
     atom    6 type  2   force =     0.09547013    0.16535911    0.28955151
     atom    7 type  2   force =    -0.00000000   -0.00000000    0.35328987
     atom    8 type  2   force =     0.17595267   -0.00000000   -0.27591427
     atom    9 type  2   force =    -0.08797633    0.15237948   -0.27591427
     atom   10 type  2   force =    -0.08797633   -0.15237948   -0.27591427
     atom   11 type  2   force =    -0.00000000    0.00000000   -0.44001686
     The ionic contribution  to forces
     atom    1 type  1   force =    -9.14654937    0.00000000    1.24068822
     atom    2 type  1   force =     4.57327469   -7.92114412    1.24068822
     atom    3 type  1   force =     4.57327469    7.92114412    1.24068822
     atom    4 type  2   force =     6.42517785   -0.00000000  -35.17957113
     atom    5 type  2   force =    -3.21258892    5.56436725  -35.17957112
     atom    6 type  2   force =    -3.21258892   -5.56436725  -35.17957112
     atom    7 type  2   force =    -0.00000000   -0.00000000  -30.03410250
     atom    8 type  2   force =    -3.56908357   -0.00000000   29.69327418
     atom    9 type  2   force =     1.78454179   -3.09091704   29.69327418
     atom   10 type  2   force =     1.78454179    3.09091704   29.69327418
     atom   11 type  2   force =     0.00000000    0.00000000   42.77092867
     The local contribution  to forces
     atom    1 type  1   force =     8.90836177   -0.00000000   -1.27925713
     atom    2 type  1   force =    -4.45418094    7.71486763   -1.27925713
     atom    3 type  1   force =    -4.45418094   -7.71486763   -1.27925713
     atom    4 type  2   force =    -6.23519735    0.00000000   34.88846687
     atom    5 type  2   force =     3.11759868   -5.39983931   34.88846687
     atom    6 type  2   force =     3.11759868    5.39983931   34.88846687
     atom    7 type  2   force =    -0.00000001   -0.00000000   29.68088709
     atom    8 type  2   force =     3.39362416    0.00000000  -29.41621576
     atom    9 type  2   force =    -1.69681209    2.93896474  -29.41621576
     atom   10 type  2   force =    -1.69681209   -2.93896474  -29.41621576
     atom   11 type  2   force =     0.00000000   -0.00000000  -42.32994108
     The core correction contribution to forces
     atom    1 type  1   force =     0.00000000    0.00000000    0.00000000
     atom    2 type  1   force =     0.00000000    0.00000000    0.00000000
     atom    3 type  1   force =     0.00000000    0.00000000    0.00000000
     atom    4 type  2   force =     0.00000000    0.00000000    0.00000000
     atom    5 type  2   force =     0.00000000    0.00000000    0.00000000
     atom    6 type  2   force =     0.00000000    0.00000000    0.00000000
     atom    7 type  2   force =     0.00000000    0.00000000    0.00000000
     atom    8 type  2   force =     0.00000000    0.00000000    0.00000000
     atom    9 type  2   force =     0.00000000    0.00000000    0.00000000
     atom   10 type  2   force =     0.00000000    0.00000000    0.00000000
     atom   11 type  2   force =     0.00000000    0.00000000    0.00000000
     The Hubbard contrib.    to forces
     atom    1 type  1   force =     0.00000000    0.00000000    0.00000000
     atom    2 type  1   force =     0.00000000    0.00000000    0.00000000
     atom    3 type  1   force =     0.00000000    0.00000000    0.00000000
     atom    4 type  2   force =     0.00000000    0.00000000    0.00000000
     atom    5 type  2   force =     0.00000000    0.00000000    0.00000000
     atom    6 type  2   force =     0.00000000    0.00000000    0.00000000
     atom    7 type  2   force =     0.00000000    0.00000000    0.00000000
     atom    8 type  2   force =     0.00000000    0.00000000    0.00000000
     atom    9 type  2   force =     0.00000000    0.00000000    0.00000000
     atom   10 type  2   force =     0.00000000    0.00000000    0.00000000
     atom   11 type  2   force =     0.00000000    0.00000000    0.00000000
     The SCF correction term to forces
     atom    1 type  1   force =    -0.00000022    0.00000000   -0.00000151
     atom    2 type  1   force =     0.00000011   -0.00000019   -0.00000151
     atom    3 type  1   force =     0.00000011    0.00000019   -0.00000151
     atom    4 type  2   force =    -0.00000004    0.00000000   -0.00000041
     atom    5 type  2   force =     0.00000002   -0.00000003   -0.00000041
     atom    6 type  2   force =     0.00000002    0.00000003   -0.00000041
     atom    7 type  2   force =    -0.00000000   -0.00000000   -0.00000024
     atom    8 type  2   force =     0.00000007    0.00000000   -0.00000067
     atom    9 type  2   force =    -0.00000004    0.00000006   -0.00000067
     atom   10 type  2   force =    -0.00000004   -0.00000006   -0.00000067
     atom   11 type  2   force =    -0.00000000   -0.00000000   -0.00000045

     DFT-D3 dispersion contribution to forces:
     atom    1 type  1   force =     0.00216983   -0.00000000   -0.00005773
     atom    2 type  1   force =    -0.00108492    0.00187913   -0.00005773
     atom    3 type  1   force =    -0.00108492   -0.00187913   -0.00005773
     atom    4 type  2   force =     0.00096012    0.00000000    0.00155207
     atom    5 type  2   force =    -0.00048006    0.00083149    0.00155207
     atom    6 type  2   force =    -0.00048006   -0.00083149    0.00155207
     atom    7 type  2   force =    -0.00000000   -0.00000000   -0.00007504
     atom    8 type  2   force =    -0.00049340   -0.00000000   -0.00114549
     atom    9 type  2   force =     0.00024670   -0.00042729   -0.00114549
     atom   10 type  2   force =     0.00024670    0.00042729   -0.00114549
     atom   11 type  2   force =     0.00000000    0.00000000   -0.00097149

     Total force =     0.000001     Total SCF correction =     0.000003

     DFT-D3 dispersion Force =     0.005454
     SCF correction compared to forces is large: reduce conv_thr to get better values

     Computing stress (Cartesian axis) and pressure

          total   stress  (Ry/bohr**3)                   (kbar)     P=        0.89
   0.00000927   0.00000000   0.00000000            1.36        0.00        0.00
   0.00000000   0.00000927   0.00000000            0.00        1.36        0.00
   0.00000000   0.00000000  -0.00000038            0.00        0.00       -0.06

     kinetic stress (kbar)   2344.28     -0.00      0.00
                                0.00   2344.28      0.00
                                0.00      0.00   2321.62

     local   stress (kbar)-105345.42      0.00      0.00
                                0.00-105345.42     -0.00
                                0.00     -0.00 101399.14

     nonloc. stress (kbar)   2131.54     -0.00      0.00
                               -0.00   2131.54      0.00
                                0.00     -0.00   2138.35

     hartree stress (kbar)  51677.64     -0.00     -0.00
                               -0.00  51677.64      0.00
                               -0.00      0.00 -50221.51

     exc-cor stress (kbar)   -496.01      0.00     -0.00
                                0.00   -496.01      0.00
                               -0.00      0.00   -497.15

     corecor stress (kbar)      0.00      0.00      0.00
                                0.00      0.00      0.00
                                0.00      0.00      0.00

     ewald   stress (kbar)  49691.25     -0.00     -0.00
                               -0.00  49691.25     -0.00
                               -0.00     -0.00 -55140.01

     hubbard stress (kbar)      0.00      0.00      0.00
                                0.00      0.00      0.00
                                0.00      0.00      0.00

     DFT-D   stress (kbar)     -1.91     -0.00     -0.00
                               -0.00     -1.91      0.00
                               -0.00      0.00     -0.48

     XDM     stress (kbar)      0.00      0.00      0.00
                                0.00      0.00      0.00
                                0.00      0.00      0.00

     dft-nl  stress (kbar)      0.00      0.00      0.00
                                0.00      0.00      0.00
                                0.00      0.00      0.00

     TS-vdW  stress (kbar)      0.00      0.00      0.00
                                0.00      0.00      0.00
                                0.00      0.00      0.00

     MDB     stress (kbar)      0.00      0.00      0.00
                                0.00      0.00      0.00
                                0.00      0.00      0.00

     3D-RISM stress (kbar)      0.00      0.00      0.00
                                0.00      0.00      0.00
                                0.00      0.00      0.00

     Damped Dynamics: convergence achieved in  24 steps

     End of damped dynamics calculation

     Final energy =    -585.0825383618 Ry

Begin final coordinates
     new unit-cell volume =   8140.04187 a.u.^3 (  1206.22976 Ang^3 )
     density =      0.77414 g/cm^3

CELL_PARAMETERS (angstrom)
   5.833355223   3.367889208   0.000000000
  -5.833355223   3.367889208   0.000000000
   0.000000000   0.000000000  30.698971239

ATOMIC_POSITIONS (crystal)
Nb              -0.1387052481        0.1387052481        0.1018286942
Nb              -0.1387052481       -0.2774104962        0.1018286942
Nb               0.2774104962        0.1387052481        0.1018286942
Cl               0.1645703946       -0.1645703946        0.0477567244
Cl               0.1645703946        0.3291407893        0.0477567244
Cl              -0.3291407893       -0.1645703946        0.0477567244
Cl              -0.3333333333        0.3333333333        0.0572528357
Cl               0.4982847258       -0.4982847258        0.1460204646
Cl               0.4982847258       -0.0034305485        0.1460204646
Cl               0.0034305485       -0.4982847258        0.1460204646
Cl               0.0000000000       -0.0000000000        0.1620079760
End final coordinates

     Writing all to output data dir ./out/Nb3Cl8.save/ :
     XML data file, charge density, pseudopotentials, collected wavefunctions

     General routines

     Parallel routines

   This run was terminated on:  23:28:51   7May2025

   JOB DONE.