     Program PWSCF v.7.3.1 starts on  5May2025 at 12:17:54

     Waiting for input...
     Reading input from standard input
Warning: card &CELL ignored
Warning: card / ignored
Warning: card &FCP ignored
Warning: card / ignored
Warning: card &RISM ignored
Warning: card / ignored

     Current dimensions of program PWSCF are:
     Max number of different atomic species (ntypx) = 10
     Max number of k-points (npk) =  40000
     Max angular momentum in pseudopotentials (lmaxx) =  4

     File ./out/Nb3Cl8.update deleted, as requested

     File ./out/Nb3Cl8.md deleted, as requested

     File ./out/Nb3Cl8.bfgs deleted, as requested

     IMPORTANT: XC functional enforced from input :
     Exchange-correlation= PBE
                           (   1   4   3   4   0   0   0)
     Any further DFT definition will be discarded
     Please, verify this is what you really want

     Message from routine setup:
     using ibrav=0 with symmetry is DISCOURAGED, use correct ibrav instead
     Message from routine setup:
     Dynamics, you should have no symmetries

     K-points division:     npool     =      16
     R & G space division:  proc/nbgrp/npool/nimage =      24
     Subspace diagonalization in iterative solution of the eigenvalue problem:
     a serial algorithm will be used

     Using Slab Decomposition

     bravais-lattice index     =            0
     lattice parameter (alat)  =      12.7288  a.u.
     unit-cell volume          =    3256.0167 (a.u.)^3
     number of atoms/cell      =           22
     number of atomic types    =            2
     number of electrons       =       190.00
     number of Kohn-Sham states=          114
     kinetic-energy cutoff     =     100.0000  Ry
     charge density cutoff     =     400.0000  Ry
     scf convergence threshold =      1.0E-12
     mixing beta               =       0.7000
     number of iterations used =            8  plain     mixing
     energy convergence thresh.=      1.0E-04
     force convergence thresh. =      1.0E-06
     Exchange-correlation= PBE
                           (   1   4   3   4   0   0   0)
     nstep                     =           50

     celldm(1)=  12.728776  celldm(2)=   0.000000  celldm(3)=   0.000000
     celldm(4)=   0.000000  celldm(5)=   0.000000  celldm(6)=   0.000000

     crystal axes: (cart. coord. in units of alat)
               a(1) = (   0.866025   0.500000   0.000000 )
               a(2) = (  -0.866025   0.500000   0.000000 )
               a(3) = (  -0.577350   0.000000   1.823039 )

     reciprocal axes: (cart. coord. in units 2 pi/alat)
               b(1) = (  0.577350  1.000000  0.182845 )
               b(2) = ( -0.577350  1.000000 -0.182845 )
               b(3) = (  0.000000 -0.000000  0.548535 )

     PseudoPot. # 1 for Nb read from file:
     /scratch-shared/mroesner/Nb3X8_cDFPT/pp/Nb_ONCV_PBE-1.2.upf
     MD5 check sum: 2c750ac0b6910ff4cf0ab5f6c4124a64
     Pseudo is Norm-conserving, Zval = 13.0
     Generated using ONCVPSP code by D. R. Hamann
     Using radial grid of  602 points,  6 beta functions with:
                l(1) =   0
                l(2) =   0
                l(3) =   1
                l(4) =   1
                l(5) =   2
                l(6) =   2

     PseudoPot. # 2 for Cl read from file:
     /scratch-shared/mroesner/Nb3X8_cDFPT/pp/Cl_ONCV_PBE-1.2.upf
     MD5 check sum: 0f993535b366f580ecbcdacce103c843
     Pseudo is Norm-conserving, Zval =  7.0
     Generated using ONCVPSP code by D. R. Hamann
     Using radial grid of  602 points,  4 beta functions with:
                l(1) =   0
                l(2) =   0
                l(3) =   1
                l(4) =   1

     atomic species   valence    mass     pseudopotential
     Nb               13.00    92.90637     Nb( 1.00)
     Cl                7.00    35.45270     Cl( 1.00)

     12 Sym. Ops., with inversion, found

                                    s                        frac. trans.

      isym =  1     identity

 cryst.   s( 1) = (     1          0          0      )
                  (     0          1          0      )
                  (     0          0          1      )

 cart.    s( 1) = (  1.0000000  0.0000000  0.0000000 )
                  (  0.0000000  1.0000000  0.0000000 )
                  (  0.0000000  0.0000000  1.0000000 )

      isym =  2     180 deg rotation - cart. axis [0,1,0]

[...]

      isym =  3     120 deg rotation - cryst. axis [0,0,1]

[...]

      isym =  6     180 deg rotation - cryst. axis [2,1,0]

[...]

      isym =  7     inversion

[...]

      isym =  8     inv. 180 deg rotation - cart. axis [0,1,0]

[...]

      isym =  9     inv. 120 deg rotation - cryst. axis [0,0,1]

 cryst.   s( 9) = (     0         -1          0      )
                  (     1          1          0      )
                  (     0          1         -1      )

 cart.    s( 9) = (  0.5000000  0.8660254  0.0000000 )
                  ( -0.8660254  0.5000000 -0.0000000 )
                  (  0.0000000  0.0000000 -1.0000000 )

[...]

 cryst.   s(10) = (     1          1          0      )
                  (    -1          0          0      )
                  (    -1          0         -1      )

 cart.    s(10) = (  0.5000000 -0.8660254  0.0000000 )
                  (  0.8660254  0.5000000  0.0000000 )
                  (  0.0000000  0.0000000 -1.0000000 )

[...]

      isym = 12     inv. 180 deg rotation - cryst. axis [2,1,0]

 cryst.   s(12) = (    -1          0          0      )
                  (     1          1          0      )
                  (     1          0          1      )

 cart.    s(12) = ( -0.5000000 -0.8660254 -0.0000000 )
                  ( -0.8660254  0.5000000 -0.0000000 )
                  (  0.0000000  0.0000000  1.0000000 )

   Cartesian axes

     site n.     atom                  positions (alat units)
         1        Nb     tau(   1) = (   0.2397774   0.0000000  -0.4602551  )
         2        Nb     tau(   2) = (  -0.1198887   0.2076533  -0.4602551  )
         3        Nb     tau(   3) = (  -0.1198887  -0.2076533  -0.4602551  )
         4        Nb     tau(   4) = (  -0.2397774   0.0000000   0.4602551  )
         5        Nb     tau(   5) = (   0.1198887  -0.2076533   0.4602551  )
         6        Nb     tau(   6) = (   0.1198887   0.2076533   0.4602551  )
         7        Cl     tau(   7) = (   0.0000000   0.0000000  -0.7326466  )
         8        Cl     tau(   8) = (   0.8695054   0.0000000  -0.6624855  )
         9        Cl     tau(   9) = (   0.4312727   0.2530137  -0.6624855  )
        10        Cl     tau(  10) = (   0.4312727  -0.2530137  -0.6624855  )
        11        Cl     tau(  11) = (   0.5773503   0.0000000  -0.2579731  )
        12        Cl     tau(  12) = (  -0.2865795   0.0000000  -0.2167952  )
        13        Cl     tau(  13) = (   0.1432898  -0.2481851  -0.2167952  )
        14        Cl     tau(  14) = (   0.1432898   0.2481851  -0.2167952  )
        15        Cl     tau(  15) = (   0.2865795   0.0000000   0.2167952  )
        16        Cl     tau(  16) = (  -0.1432898   0.2481851   0.2167952  )
        17        Cl     tau(  17) = (  -0.1432898  -0.2481851   0.2167952  )
        18        Cl     tau(  18) = (  -0.5773503   0.0000000   0.2579731  )
        19        Cl     tau(  19) = (  -0.8695054   0.0000000   0.6624855  )
        20        Cl     tau(  20) = (  -0.4312727  -0.2530137   0.6624855  )
        21        Cl     tau(  21) = (  -0.4312727   0.2530137   0.6624855  )
        22        Cl     tau(  22) = (  -0.0000000   0.0000000   0.7326466  )

     DFT-D3 Dispersion Correction (no 3-body):
       Reference C6 values for interpolation:

         atom   Coordination number   C6
         Cl         0.000           184.69
         Cl         0.997           180.80
         Nb         0.000          2950.50
         Nb         1.954          1161.16
         Nb         2.922           857.79

       Values used:

         atom   Coordination number  R0_AB[au]  C6      C8
         Nb         8.273            3.647    857.79 111659.18
         Nb         8.273            3.647    857.79 111659.18
         Nb         8.273            3.647    857.79 111659.18
         Nb         8.273            3.647    857.79 111659.18
         Nb         8.273            3.647    857.79 111659.18
         Nb         8.273            3.647    857.79 111659.18
         Cl         3.219            2.933    180.80   7543.49
         Cl         2.296            2.933    180.80   7543.50
         Cl         2.296            2.933    180.80   7543.50
         Cl         2.296            2.933    180.80   7543.50
         Cl         3.113            2.933    180.80   7543.49
         Cl         2.311            2.933    180.80   7543.50
         Cl         2.311            2.933    180.80   7543.50
         Cl         2.311            2.933    180.80   7543.50
         Cl         2.311            2.933    180.80   7543.50
         Cl         2.311            2.933    180.80   7543.50
         Cl         2.311            2.933    180.80   7543.50
         Cl         3.113            2.933    180.80   7543.49
         Cl         2.296            2.933    180.80   7543.50
         Cl         2.296            2.933    180.80   7543.50
         Cl         2.296            2.933    180.80   7543.50
         Cl         3.219            2.933    180.80   7543.49

         Molecular C6 ( Ry / a.u.^6 ) =    150899.93

   Crystallographic axes

     site n.     atom                  positions (cryst. coord.)
         1        Nb     tau(   1) = (  0.0542803 -0.0542803 -0.2524658  )
         2        Nb     tau(   2) = (  0.0542803  0.3610263 -0.2524658  )
         3        Nb     tau(   3) = ( -0.3610263 -0.0542803 -0.2524658  )
         4        Nb     tau(   4) = ( -0.0542803  0.0542803  0.2524658  )
         5        Nb     tau(   5) = ( -0.0542803 -0.3610263  0.2524658  )
         6        Nb     tau(   6) = (  0.3610263  0.0542803  0.2524658  )
         7        Cl     tau(   7) = ( -0.1339607  0.1339607 -0.4018820  )
         8        Cl     tau(   8) = (  0.3808771 -0.3808771 -0.3633962  )
         9        Cl     tau(   9) = (  0.3808771  0.1251504 -0.3633962  )
        10        Cl     tau(  10) = ( -0.1251504 -0.3808771 -0.3633962  )
        11        Cl     tau(  11) = (  0.2861643 -0.2861643 -0.1415072  )
        12        Cl     tau(  12) = ( -0.2050966  0.2050966 -0.1189196  )
        13        Cl     tau(  13) = ( -0.2050966 -0.2912736 -0.1189196  )
        14        Cl     tau(  14) = (  0.2912736  0.2050966 -0.1189196  )
        15        Cl     tau(  15) = (  0.2050966 -0.2050966  0.1189196  )
        16        Cl     tau(  16) = (  0.2050966  0.2912736  0.1189196  )
        17        Cl     tau(  17) = ( -0.2912736 -0.2050966  0.1189196  )
        18        Cl     tau(  18) = ( -0.2861643  0.2861643  0.1415072  )
        19        Cl     tau(  19) = ( -0.3808771  0.3808771  0.3633962  )
        20        Cl     tau(  20) = ( -0.3808771 -0.1251504  0.3633962  )
        21        Cl     tau(  21) = (  0.1251504  0.3808771  0.3633962  )
        22        Cl     tau(  22) = (  0.1339607 -0.1339607  0.4018820  )

[...]
     atom    7 type  2   force =     0.00000000    0.00000000    0.46321808
     atom    8 type  2   force =    -0.18405991   -0.00000000    0.28108072
     atom    9 type  2   force =     0.09202995   -0.15940055    0.28108072
     atom   10 type  2   force =     0.09202995    0.15940055    0.28108072
     atom   11 type  2   force =     0.00000000   -0.00000000   -0.35089974
     atom   12 type  2   force =     0.20017534    0.00000000   -0.28483879
     atom   13 type  2   force =    -0.10008767    0.17335693   -0.28483879
     atom   14 type  2   force =    -0.10008767   -0.17335693   -0.28483879
     atom   15 type  2   force =    -0.20017534    0.00000000    0.28483879
     atom   16 type  2   force =     0.10008767   -0.17335693    0.28483879
     atom   17 type  2   force =     0.10008767    0.17335693    0.28483879
     atom   18 type  2   force =     0.00000000   -0.00000000    0.35089974
     atom   19 type  2   force =     0.18405991   -0.00000000   -0.28108072
     atom   20 type  2   force =    -0.09202995    0.15940055   -0.28108072
     atom   21 type  2   force =    -0.09202995   -0.15940055   -0.28108072
     atom   22 type  2   force =     0.00000000    0.00000000   -0.46321808
     The ionic contribution  to forces
     atom    1 type  1   force =     9.31206717   -0.00000000   -0.27125130
     atom    2 type  1   force =    -4.65603358    8.06448673   -0.27125129
     atom    3 type  1   force =    -4.65603358   -8.06448673   -0.27125129
     atom    4 type  1   force =    -9.31206717    0.00000000    0.27125130
     atom    5 type  1   force =     4.65603358   -8.06448673    0.27125129
     atom    6 type  1   force =     4.65603358    8.06448673    0.27125129
     atom    7 type  2   force =     0.00000000    0.00000000  -14.32244284
     atom    8 type  2   force =     4.00004427   -0.00000000   -8.11156155
     atom    9 type  2   force =    -2.00002214    3.46413995   -8.11156156
     atom   10 type  2   force =    -2.00002214   -3.46413995   -8.11156156
     atom   11 type  2   force =     0.00000000    0.00000000    9.68116341
     atom   12 type  2   force =    -6.82504864    0.00000000   10.09421942
     atom   13 type  2   force =     3.41252432   -5.91066551   10.09421942
     atom   14 type  2   force =     3.41252432    5.91066551   10.09421942
     atom   15 type  2   force =     6.82504864   -0.00000000  -10.09421942
     atom   16 type  2   force =    -3.41252432    5.91066551  -10.09421942
     atom   17 type  2   force =    -3.41252432   -5.91066551  -10.09421942
     atom   18 type  2   force =    -0.00000000   -0.00000000   -9.68116341
     atom   19 type  2   force =    -4.00004427    0.00000000    8.11156155
     atom   20 type  2   force =     2.00002214   -3.46413995    8.11156156
     atom   21 type  2   force =     2.00002214    3.46413995    8.11156156
     atom   22 type  2   force =    -0.00000000    0.00000000   14.32244284
     The local contribution  to forces
     atom    1 type  1   force =    -9.07562357    0.00000000    0.31030985
     atom    2 type  1   force =     4.53781179   -7.85972057    0.31030985
     atom    3 type  1   force =     4.53781179    7.85972057    0.31030985
     atom    4 type  1   force =     9.07562357   -0.00000000   -0.31030985
     atom    5 type  1   force =    -4.53781179    7.85972057   -0.31030985
     atom    6 type  1   force =    -4.53781179   -7.85972057   -0.31030985
     atom    7 type  2   force =    -0.00000000   -0.00000000   13.86012350
     atom    8 type  2   force =    -3.81650953   -0.00000000    7.83127838
     atom    9 type  2   force =     1.90825476   -3.30519420    7.83127838
     atom   10 type  2   force =     1.90825476    3.30519420    7.83127838
     atom   11 type  2   force =     0.00000001    0.00000000   -9.33217391
     atom   12 type  2   force =     6.62581082   -0.00000000   -9.80977970
     atom   13 type  2   force =    -3.31290541    5.73812049   -9.80977970
     atom   14 type  2   force =    -3.31290541   -5.73812049   -9.80977970
     atom   15 type  2   force =    -6.62581082    0.00000000    9.80977970
     atom   16 type  2   force =     3.31290541   -5.73812049    9.80977970
     atom   17 type  2   force =     3.31290541    5.73812049    9.80977970
     atom   18 type  2   force =    -0.00000001   -0.00000000    9.33217391
     atom   19 type  2   force =     3.81650953    0.00000000   -7.83127838
     atom   20 type  2   force =    -1.90825476    3.30519420   -7.83127838
     atom   21 type  2   force =    -1.90825476   -3.30519420   -7.83127838
     atom   22 type  2   force =     0.00000000    0.00000000  -13.86012350
     The core correction contribution to forces
     atom    1 type  1   force =     0.00000000    0.00000000    0.00000000
     atom    2 type  1   force =     0.00000000    0.00000000    0.00000000
     atom    3 type  1   force =     0.00000000    0.00000000    0.00000000
     atom    4 type  1   force =     0.00000000    0.00000000    0.00000000
     atom    5 type  1   force =     0.00000000    0.00000000    0.00000000
     atom    6 type  1   force =     0.00000000    0.00000000    0.00000000
     atom    7 type  2   force =     0.00000000    0.00000000    0.00000000
     atom    8 type  2   force =     0.00000000    0.00000000    0.00000000
     atom    9 type  2   force =     0.00000000    0.00000000    0.00000000
     atom   10 type  2   force =     0.00000000    0.00000000    0.00000000
     atom   11 type  2   force =     0.00000000    0.00000000    0.00000000
     atom   12 type  2   force =     0.00000000    0.00000000    0.00000000
     atom   13 type  2   force =     0.00000000    0.00000000    0.00000000
     atom   14 type  2   force =     0.00000000    0.00000000    0.00000000
     atom   15 type  2   force =     0.00000000    0.00000000    0.00000000
     atom   16 type  2   force =     0.00000000    0.00000000    0.00000000
     atom   17 type  2   force =     0.00000000    0.00000000    0.00000000
     atom   18 type  2   force =     0.00000000    0.00000000    0.00000000
     atom   19 type  2   force =     0.00000000    0.00000000    0.00000000
     atom   20 type  2   force =     0.00000000    0.00000000    0.00000000
     atom   21 type  2   force =     0.00000000    0.00000000    0.00000000
     atom   22 type  2   force =     0.00000000    0.00000000    0.00000000
     The Hubbard contrib.    to forces
     atom    1 type  1   force =     0.00000000    0.00000000    0.00000000
     atom    2 type  1   force =     0.00000000    0.00000000    0.00000000
     atom    3 type  1   force =     0.00000000    0.00000000    0.00000000
     atom    4 type  1   force =     0.00000000    0.00000000    0.00000000
     atom    5 type  1   force =     0.00000000    0.00000000    0.00000000
     atom    6 type  1   force =     0.00000000    0.00000000    0.00000000
     atom    7 type  2   force =     0.00000000    0.00000000    0.00000000
     atom    8 type  2   force =     0.00000000    0.00000000    0.00000000
     atom    9 type  2   force =     0.00000000    0.00000000    0.00000000
     atom   10 type  2   force =     0.00000000    0.00000000    0.00000000
     atom   11 type  2   force =     0.00000000    0.00000000    0.00000000
     atom   12 type  2   force =     0.00000000    0.00000000    0.00000000
     atom   13 type  2   force =     0.00000000    0.00000000    0.00000000
     atom   14 type  2   force =     0.00000000    0.00000000    0.00000000
     atom   15 type  2   force =     0.00000000    0.00000000    0.00000000
     atom   16 type  2   force =     0.00000000    0.00000000    0.00000000
     atom   17 type  2   force =     0.00000000    0.00000000    0.00000000
     atom   18 type  2   force =     0.00000000    0.00000000    0.00000000
     atom   19 type  2   force =     0.00000000    0.00000000    0.00000000
     atom   20 type  2   force =     0.00000000    0.00000000    0.00000000
     atom   21 type  2   force =     0.00000000    0.00000000    0.00000000
     atom   22 type  2   force =     0.00000000    0.00000000    0.00000000
     The SCF correction term to forces
     atom    1 type  1   force =     0.00000022    0.00000000   -0.00000079
     atom    2 type  1   force =    -0.00000011    0.00000019   -0.00000079
     atom    3 type  1   force =    -0.00000011   -0.00000019   -0.00000079
     atom    4 type  1   force =    -0.00000022   -0.00000000    0.00000079
     atom    5 type  1   force =     0.00000011   -0.00000019    0.00000079
     atom    6 type  1   force =     0.00000011    0.00000019    0.00000079
     atom    7 type  2   force =    -0.00000000   -0.00000000   -0.00000016
     atom    8 type  2   force =     0.00000004   -0.00000000   -0.00000040
     atom    9 type  2   force =    -0.00000002    0.00000004   -0.00000040
     atom   10 type  2   force =    -0.00000002   -0.00000004   -0.00000040
     atom   11 type  2   force =    -0.00000000    0.00000000    0.00000010
     atom   12 type  2   force =    -0.00000035   -0.00000000    0.00000015
     atom   13 type  2   force =     0.00000018   -0.00000030    0.00000015
     atom   14 type  2   force =     0.00000018    0.00000030    0.00000015
     atom   15 type  2   force =     0.00000035    0.00000000   -0.00000015
     atom   16 type  2   force =    -0.00000018    0.00000030   -0.00000015
     atom   17 type  2   force =    -0.00000018   -0.00000030   -0.00000015
     atom   18 type  2   force =     0.00000000   -0.00000000   -0.00000010
     atom   19 type  2   force =    -0.00000004   -0.00000000    0.00000040
     atom   20 type  2   force =     0.00000002   -0.00000004    0.00000040
     atom   21 type  2   force =     0.00000002    0.00000004    0.00000040
     atom   22 type  2   force =     0.00000000    0.00000000    0.00000016

     DFT-D3 dispersion contribution to forces:
     atom    1 type  1   force =    -0.00217095   -0.00000000   -0.00005779
     atom    2 type  1   force =     0.00108548   -0.00188010   -0.00005779
     atom    3 type  1   force =     0.00108548    0.00188010   -0.00005779
     atom    4 type  1   force =     0.00217095    0.00000000    0.00005779
     atom    5 type  1   force =    -0.00108548    0.00188010    0.00005779
     atom    6 type  1   force =    -0.00108548   -0.00188010    0.00005779
     atom    7 type  2   force =     0.00000000    0.00000000   -0.00089933
     atom    8 type  2   force =     0.00052515   -0.00000000   -0.00079786
     atom    9 type  2   force =    -0.00026257    0.00045479   -0.00079786
     atom   10 type  2   force =    -0.00026257   -0.00045479   -0.00079786
     atom   11 type  2   force =     0.00000000   -0.00000000    0.00190924
     atom   12 type  2   force =    -0.00093711   -0.00000000    0.00039812
     atom   13 type  2   force =     0.00046855   -0.00081156    0.00039812
     atom   14 type  2   force =     0.00046855    0.00081156    0.00039812
     atom   15 type  2   force =     0.00093711   -0.00000000   -0.00039812
     atom   16 type  2   force =    -0.00046855    0.00081156   -0.00039812
     atom   17 type  2   force =    -0.00046855   -0.00081156   -0.00039812
     atom   18 type  2   force =    -0.00000000    0.00000000   -0.00190924
     atom   19 type  2   force =    -0.00052515    0.00000000    0.00079786
     atom   20 type  2   force =     0.00026257   -0.00045479    0.00079786
     atom   21 type  2   force =     0.00026257    0.00045479    0.00079786
     atom   22 type  2   force =    -0.00000000   -0.00000000    0.00089933

     Total force =     0.000004     Total SCF correction =     0.000002

     DFT-D3 dispersion Force =     0.006993
     SCF correction compared to forces is large: reduce conv_thr to get better values

     Computing stress (Cartesian axis) and pressure

          total   stress  (Ry/bohr**3)                   (kbar)     P=        3.70
   0.00003304   0.00000000  -0.00000000            4.86        0.00       -0.00
  -0.00000000   0.00003304  -0.00000000           -0.00        4.86       -0.00
  -0.00000000   0.00000000   0.00000940           -0.00        0.00        1.38

     kinetic stress (kbar)  11723.98      0.00      0.00
                               -0.00  11723.98      0.00
                                0.00      0.00  11631.66

     local   stress (kbar) -18911.39      0.00     -0.00
                                0.00 -18911.39      0.00
                               -0.00      0.00   -748.10

     nonloc. stress (kbar)  10660.48      0.00      0.00
                               -0.00  10660.48     -0.00
                                0.00     -0.00  10694.28

     hartree stress (kbar)   7621.77      0.00      0.00
                                0.00   7621.77      0.00
                                0.00      0.00   -349.68

     exc-cor stress (kbar)  -2482.43     -0.00      0.00
                               -0.00  -2482.43     -0.00
                                0.00     -0.00  -2485.77

     corecor stress (kbar)      0.00      0.00      0.00
                                0.00      0.00      0.00
                                0.00      0.00      0.00

     ewald   stress (kbar)  -8592.91     -0.00      0.00
                               -0.00  -8592.91      0.00
                                0.00      0.00 -18722.95

     hubbard stress (kbar)      0.00      0.00      0.00
                                0.00      0.00      0.00
                                0.00      0.00      0.00

     DFT-D   stress (kbar)    -14.65      0.00     -0.00
                                0.00    -14.65      0.00
                               -0.00      0.00    -18.05

     XDM     stress (kbar)      0.00      0.00      0.00
                                0.00      0.00      0.00
                                0.00      0.00      0.00

     dft-nl  stress (kbar)      0.00      0.00      0.00
                                0.00      0.00      0.00
                                0.00      0.00      0.00

     TS-vdW  stress (kbar)      0.00      0.00      0.00
                                0.00      0.00      0.00
                                0.00      0.00      0.00

     MDB     stress (kbar)      0.00      0.00      0.00
                                0.00      0.00      0.00
                                0.00      0.00      0.00

     3D-RISM stress (kbar)      0.00      0.00      0.00
                                0.00      0.00      0.00
                                0.00      0.00      0.00

     Damped Dynamics: convergence achieved in   4 steps

     End of damped dynamics calculation

     Final energy =   -1170.2715687721 Ry

Begin final coordinates
     new unit-cell volume =   3256.01675 a.u.^3 (   482.49190 Ang^3 )
     density =      3.87069 g/cm^3

CELL_PARAMETERS (angstrom)
   5.833355223   3.367889208   0.000000000
  -5.833355223   3.367889208   0.000000000
  -3.888903482   0.000000000  12.279588495

ATOMIC_POSITIONS (crystal)
Nb               0.0542801742       -0.0542801742       -0.2524660278
Nb               0.0542801742        0.3610263761       -0.2524660278
Nb              -0.3610263761       -0.0542801742       -0.2524660278
Nb              -0.0542801742        0.0542801742        0.2524660278
Nb              -0.0542801742       -0.3610263761        0.2524660278
Nb               0.3610263761        0.0542801742        0.2524660278
Cl              -0.1339607180        0.1339607180       -0.4018821539
Cl               0.3808770319       -0.3808770319       -0.3633964184
Cl               0.3808770319        0.1251504820       -0.3633964184
Cl              -0.1251504820       -0.3808770319       -0.3633964184
Cl               0.2861642135       -0.2861642135       -0.1415073595
Cl              -0.2050967025        0.2050967025       -0.1189198224
Cl              -0.2050967025       -0.2912735827       -0.1189198224
Cl               0.2912735827        0.2050967025       -0.1189198224
Cl               0.2050967025       -0.2050967025        0.1189198224
Cl               0.2050967025        0.2912735827        0.1189198224
Cl              -0.2912735827       -0.2050967025        0.1189198224
Cl              -0.2861642135        0.2861642135        0.1415073595
Cl              -0.3808770319        0.3808770319        0.3633964184
Cl              -0.3808770319       -0.1251504820        0.3633964184
Cl               0.1251504820        0.3808770319        0.3633964184
Cl               0.1339607180       -0.1339607180        0.4018821539
End final coordinates

     Writing all to output data dir ./out/Nb3Cl8.save/ :
     XML data file, charge density, pseudopotentials, collected wavefunctions

     General routines

     Parallel routines

   This run was terminated on:  12:19:47   5May2025

   JOB DONE.