     Program PHONON v.7.3.1 starts on  8May2025 at 11:19:29

     Waiting for input...
     Reading input from standard input
     Run is not recoverable starting from scratch

     Reading xml data from directory:

     ./out/Nb3I8.save/

     K-points division:     npool     =      12
     R & G space division:  proc/nbgrp/npool/nimage =      32
     Subspace diagonalization in iterative solution of the eigenvalue problem:
     a serial algorithm will be used

     IMPORTANT: XC functional enforced from input :
     Exchange-correlation= PBE
                           (   1   4   3   4   0   0   0)
     Any further DFT definition will be discarded
     Please, verify this is what you really want

     Using Slab Decomposition

     Message from routine divide_et_impera:
     suboptimal parallelization: some nodes have no k-points
     Reading collected, re-writing distributed wavefunctions in ./out/

     Dynamical matrices for ( 2, 2, 1)  uniform grid of q-points
     (   2 q-points):
       N         xq(1)         xq(2)         xq(3)
       1   0.000000000   0.000000000   0.000000000
       2   0.288675135  -0.500000000   0.000000000

     Number and degeneracy of irreps per q-point
       N         xq(1)         xq(2)         xq(3)   N irreps
       1   0.000000000   0.000000000   0.000000000      22
        1   1   1   1   1   1   1   1   1   1   1   2   2   2   2   2   2   2
   2   2   2   2
       2   0.288675135  -0.500000000   0.000000000      33
     No degeneracy

     Saving dvscf to file. Distribute only q points, not irreducible representations.

     Calculation of q =    0.0000000   0.0000000   0.0000000

     Nb3I8

     bravais-lattice index     =            0
     lattice parameter (alat)  =      14.4200  a.u.
     unit-cell volume          =   11694.9391 (a.u.)^3
     number of atoms/cell      =           11
     number of atomic types    =            2
     kinetic-energy cut-off    =     100.0000  Ry
     charge density cut-off    =     400.0000  Ry
     convergence threshold     =      1.0E-16
     beta                      =       0.7000
     number of iterations used =            4
     Exchange-correlation= PBE
                           (   1   4   3   4   0   0   0)

     celldm(1)=   14.41999  celldm(2)=    0.00000  celldm(3)=    0.00000
     celldm(4)=    0.00000  celldm(5)=    0.00000  celldm(6)=    0.00000

     crystal axes: (cart. coord. in units of alat)
               a(1) = (  0.8660  0.5000  0.0000 )
               a(2) = ( -0.8660  0.5000  0.0000 )
               a(3) = (  0.0000  0.0000  4.5037 )

     reciprocal axes: (cart. coord. in units 2 pi/alat)
               b(1) = (  0.5774  1.0000 -0.0000 )
               b(2) = ( -0.5774  1.0000  0.0000 )
               b(3) = (  0.0000 -0.0000  0.2220 )

     Atoms inside the unit cell:

     Cartesian axes

     site n.  atom      mass           positions (alat units)
        1  Nb     92.9064   tau(    1) = (    0.63891    0.50000    0.44775  )
        2  Nb     92.9064   tau(    2) = (    0.11356    0.80332    0.44775  )
        3  Nb     92.9064   tau(    3) = (    0.11356    0.19668    0.44775  )
        4  I     126.9045   tau(    4) = (   -0.57776    0.50000    0.19700  )
        5  I     126.9045   tau(    5) = (   -0.14413    0.24964    0.19700  )
        6  I     126.9045   tau(    6) = (   -0.14413    0.75036    0.19700  )
        7  I     126.9045   tau(    7) = (    0.28868    0.50000    0.25576  )
        8  I     126.9045   tau(    8) = (   -0.00507    0.50000    0.64975  )
        9  I     126.9045   tau(    9) = (   -0.43048    0.74561    0.64975  )
       10  I     126.9045   tau(   10) = (   -0.43048    0.25439    0.64975  )
       11  I     126.9045   tau(   11) = (   -0.86603    0.50000    0.73043  )

     Computing dynamical matrix for
                    q = (   0.0000000   0.0000000   0.0000000 )

      7 Sym.Ops. (with q -> -q+G )

     G cutoff = 2106.8320  (  49371 G-vectors)     FFT grid: ( 96, 96,432)

     number of k points=     7  Gaussian smearing, width (Ry)=  0.0037

     PseudoPot. # 1 for Nb read from file:
     /scratch-shared/mroesner/Nb3X8_cDFPT/pp/Nb_ONCV_PBE-1.2.upf
     MD5 check sum: 2c750ac0b6910ff4cf0ab5f6c4124a64
     Pseudo is Norm-conserving, Zval = 13.0
     Generated using ONCVPSP code by D. R. Hamann
     Using radial grid of  602 points,  6 beta functions with:
                l(1) =   0
                l(2) =   0
                l(3) =   1
                l(4) =   1
                l(5) =   2
                l(6) =   2

     PseudoPot. # 2 for I  read from file:
     /scratch-shared/mroesner/Nb3X8_cDFPT/pp/I_ONCV_PBE-1.2.upf
     MD5 check sum: 8277ef51204d8074ead4596f3b37a2aa
     Pseudo is Norm-conserving, Zval = 17.0
     Generated using ONCVPSP code by D. R. Hamann
     Using radial grid of  602 points,  6 beta functions with:
                l(1) =   0
                l(2) =   0
                l(3) =   1
                l(4) =   1
                l(5) =   2
                l(6) =   2

     Mode symmetry, C_3v (3m)   point group:

     Atomic displacements:
     There are   22 irreducible representations

     Representation     1      1 modes -  To be done

[...]

     Alpha used in Ewald sum =   2.8000

     Reading Grimme-D3 Hessian from file: ./out/Nb3I8.hess

     Number of cells replicated along each semiaxis:    8   8   2
     Number of cells in the supercell:      1445
     Number of atoms in the supercell:     15895
     Hessian allocation dimension:   1573605

     Grimme-D3 Hessian read

     Computing dynamical matrix for q:     0.000000    0.000000    0.000000

     Writing Hessian on file dynamical.false.dat

     Dynamical matrix computed

     Representation #   1 mode #   1

     Self-consistent Calculation

     Pert. #  1: Fermi energy shift (Ry) =     2.1148E-01     1.8529E-22

      thresh= 1.000E-02 alpha_mix =  0.700 |ddv_scf|^2 =  1.593E-07

[...]

     End of self-consistent calculation

     Convergence has been achieved

[...]

     Representation #  12 modes #  12  13

[...]

     Representation #  22 modes #  32  33

[...]

     Pert. #  1: Fermi energy shift (Ry) =    -1.0842E-19     1.7937E-43
     Pert. #  2: Fermi energy shift (Ry) =    -1.2649E-19     2.3915E-43

[...]

     Number of q in the star =    1
     List of q in the star:
          1   0.000000000   0.000000000   0.000000000

     Diagonalizing the dynamical matrix

     q = (    0.000000000   0.000000000   0.000000000 )

     freq (    1) =      -0.173804 [THz] =      -5.797480 [cm-1]
     freq (    2) =      -0.173804 [THz] =      -5.797480 [cm-1]
     freq (    3) =       0.074836 [THz] =       2.496273 [cm-1]
     freq (    4) =       1.439084 [THz] =      48.002679 [cm-1]
     freq (    5) =       1.439084 [THz] =      48.002679 [cm-1]
     freq (    6) =       1.849411 [THz] =      61.689701 [cm-1]
     freq (    7) =       1.849411 [THz] =      61.689701 [cm-1]
     freq (    8) =       2.190807 [THz] =      73.077464 [cm-1]
     freq (    9) =       2.587983 [THz] =      86.325835 [cm-1]
     freq (   10) =       2.587983 [THz] =      86.325835 [cm-1]
     freq (   11) =       2.594145 [THz] =      86.531364 [cm-1]
     freq (   12) =       2.770904 [THz] =      92.427398 [cm-1]
     freq (   13) =       2.833571 [THz] =      94.517752 [cm-1]
     freq (   14) =       2.833571 [THz] =      94.517752 [cm-1]
     freq (   15) =       2.981947 [THz] =      99.467029 [cm-1]
     freq (   16) =       3.040475 [THz] =     101.419340 [cm-1]
     freq (   17) =       3.277927 [THz] =     109.339879 [cm-1]
     freq (   18) =       3.277927 [THz] =     109.339879 [cm-1]
     freq (   19) =       3.332386 [THz] =     111.156436 [cm-1]
     freq (   20) =       3.332386 [THz] =     111.156436 [cm-1]
     freq (   21) =       3.737718 [THz] =     124.676854 [cm-1]
     freq (   22) =       4.028932 [THz] =     134.390704 [cm-1]
     freq (   23) =       4.028932 [THz] =     134.390704 [cm-1]
     freq (   24) =       4.121500 [THz] =     137.478438 [cm-1]
     freq (   25) =       5.009449 [THz] =     167.097217 [cm-1]
     freq (   26) =       5.009449 [THz] =     167.097217 [cm-1]
     freq (   27) =       5.663133 [THz] =     188.901790 [cm-1]
     freq (   28) =       6.166603 [THz] =     205.695739 [cm-1]
     freq (   29) =       6.166603 [THz] =     205.695739 [cm-1]
     freq (   30) =       6.557141 [THz] =     218.722682 [cm-1]
     freq (   31) =       7.166195 [THz] =     239.038521 [cm-1]
     freq (   32) =       7.166195 [THz] =     239.038521 [cm-1]
     freq (   33) =       7.442288 [THz] =     248.248016 [cm-1]

     Mode symmetry, C_3v (3m)   point group:

     freq (   1-   2) =         -5.8  [cm-1]   --> E    L_3        I+R
     freq (   3-   3) =          2.5  [cm-1]   --> A_1  L_1        I+R
     freq (   4-   5) =         48.0  [cm-1]   --> E    L_3        I+R
     freq (   6-   7) =         61.7  [cm-1]   --> E    L_3        I+R
     freq (   8-   8) =         73.1  [cm-1]   --> A_2  L_2
     freq (   9-  10) =         86.3  [cm-1]   --> E    L_3        I+R
     freq (  11-  11) =         86.5  [cm-1]   --> A_1  L_1        I+R
     freq (  12-  12) =         92.4  [cm-1]   --> A_1  L_1        I+R
     freq (  13-  14) =         94.5  [cm-1]   --> E    L_3        I+R
     freq (  15-  15) =         99.5  [cm-1]   --> A_2  L_2
     freq (  16-  16) =        101.4  [cm-1]   --> A_1  L_1        I+R
     freq (  17-  18) =        109.3  [cm-1]   --> E    L_3        I+R
     freq (  19-  20) =        111.2  [cm-1]   --> E    L_3        I+R
     freq (  21-  21) =        124.7  [cm-1]   --> A_1  L_1        I+R
     freq (  22-  23) =        134.4  [cm-1]   --> E    L_3        I+R
     freq (  24-  24) =        137.5  [cm-1]   --> A_1  L_1        I+R
     freq (  25-  26) =        167.1  [cm-1]   --> E    L_3        I+R
     freq (  27-  27) =        188.9  [cm-1]   --> A_2  L_2
     freq (  28-  29) =        205.7  [cm-1]   --> E    L_3        I+R
     freq (  30-  30) =        218.7  [cm-1]   --> A_1  L_1        I+R
     freq (  31-  32) =        239.0  [cm-1]   --> E    L_3        I+R
     freq (  33-  33) =        248.2  [cm-1]   --> A_1  L_1        I+R

     Calculation of q =    0.2886751  -0.5000000   0.0000000

     Using Slab Decomposition

     Title:
     Nb3I8

     bravais-lattice index     =            0
     lattice parameter (alat)  =      14.4200  a.u.
     unit-cell volume          =   11694.9391 (a.u.)^3
     number of atoms/cell      =           11
     number of atomic types    =            2
     number of electrons       =       175.00
     number of Kohn-Sham states=          106
     kinetic-energy cutoff     =     100.0000  Ry
     charge density cutoff     =     400.0000  Ry
     Exchange-correlation= PBE
                           (   1   4   3   4   0   0   0)

[...]

     atomic species   valence    mass     pseudopotential
     Nb               13.00    92.90637     Nb( 1.00)
     I                17.00   126.90447     I ( 1.00)

      6 Sym. Ops. (no inversion) found

[...]

     site n.     atom                  positions (alat units)
         1        Nb     tau(   1) = (   0.6389149   0.5000000   0.4477546  )
         2        Nb     tau(   2) = (   0.1135552   0.8033165   0.4477546  )
         3        Nb     tau(   3) = (   0.1135552   0.1966835   0.4477546  )
         4        I      tau(   4) = (  -0.5777648   0.5000000   0.1969996  )
         5        I      tau(   5) = (  -0.1441303   0.2496410   0.1969996  )
         6        I      tau(   6) = (  -0.1441303   0.7503590   0.1969996  )
         7        I      tau(   7) = (   0.2886751   0.5000000   0.2557556  )
         8        I      tau(   8) = (  -0.0050724   0.5000000   0.6497473  )
         9        I      tau(   9) = (  -0.4304765   0.7456071   0.6497473  )
        10        I      tau(  10) = (  -0.4304765   0.2543929   0.6497473  )
        11        I      tau(  11) = (  -0.8660254   0.5000000   0.7304268  )

     DFT-D3 Dispersion Correction (no 3-body):
       Reference C6 values for interpolation:

         atom   Coordination number   C6
         Nb         0.000          2950.50
         Nb         1.954          1161.16
         Nb         2.922           857.79
         I          0.000           703.93
         I          0.997           717.00

       Values used:

         atom   Coordination number  R0_AB[au]  C6      C8
         Nb         7.889            3.647    857.79 111659.18
         Nb         7.889            3.647    857.79 111659.18
         Nb         7.889            3.647    857.79 111659.18
         I          3.584            3.532    717.00  65856.01
         I          3.584            3.532    717.00  65856.01
         I          3.584            3.532    717.00  65856.01
         I          4.863            3.532    717.00  65856.01
         I          3.796            3.532    717.00  65856.01
         I          3.796            3.532    717.00  65856.01
         I          3.796            3.532    717.00  65856.01
         I          4.206            3.532    717.00  65856.01

         Molecular C6 ( Ry / a.u.^6 ) =     90972.34

     number of k points=    26  Gaussian smearing, width (Ry)=  0.0037
                       cart. coord. in units 2pi/alat
        k(    1) = (   0.0000000   0.0000000   0.0000000), wk =   0.0555556
        k(    2) = (   0.2886751  -0.5000000   0.0000000), wk =   0.0000000
        k(    3) = (  -0.0962250   0.1666667   0.0000000), wk =   0.1111111
        k(    4) = (   0.1924501  -0.3333333   0.0000000), wk =   0.0000000
        k(    5) = (  -0.1924501   0.3333333   0.0000000), wk =   0.1111111
        k(    6) = (   0.0962250  -0.1666667   0.0000000), wk =   0.0000000
        k(    7) = (   0.2886751  -0.5000000   0.0000000), wk =   0.0555556
        k(    8) = (   0.5773503  -1.0000000   0.0000000), wk =   0.0000000
        k(    9) = (   0.0000000   0.3333333   0.0000000), wk =   0.2222222
        k(   10) = (   0.2886751  -0.1666667   0.0000000), wk =   0.0000000
        k(   11) = (  -0.0962250   0.5000000   0.0000000), wk =   0.2222222
        k(   12) = (   0.1924501  -0.0000000   0.0000000), wk =   0.0000000
        k(   13) = (   0.0000000   0.6666667   0.0000000), wk =   0.1111111
        k(   14) = (   0.2886751   0.1666667   0.0000000), wk =   0.0000000
        k(   15) = (   0.1924501   0.0000000   0.0000000), wk =   0.2222222
        k(   16) = (   0.4811252  -0.5000000   0.0000000), wk =   0.0000000
        k(   17) = (   0.3849002   0.0000000   0.0000000), wk =   0.2222222
        k(   18) = (   0.6735753  -0.5000000   0.0000000), wk =   0.0000000
        k(   19) = (  -0.5773503   0.0000000   0.0000000), wk =   0.1111111
        k(   20) = (  -0.2886751  -0.5000000   0.0000000), wk =   0.0000000
        k(   21) = (   0.2886751   0.1666667   0.0000000), wk =   0.1111111
        k(   22) = (   0.5773503  -0.3333333   0.0000000), wk =   0.0000000
        k(   23) = (   0.4811252  -0.1666667   0.0000000), wk =   0.2222222
        k(   24) = (   0.7698004  -0.6666667   0.0000000), wk =   0.0000000
        k(   25) = (   0.4811252   0.1666667   0.0000000), wk =   0.2222222
        k(   26) = (   0.7698004  -0.3333333   0.0000000), wk =   0.0000000

     The potential is recalculated from file :
     ./out/_ph0/Nb3I8.q_2/Nb3I8.save/charge-density

     Starting wfcs are    0 atomic +  106 random wfcs

     Band Structure Calculation
     Davidson diagonalization with overlap

     ethr =  5.71E-12,  avg # of iterations = 40.2

     End of band structure calculation

          k = 0.0000 0.0000 0.0000 (197283 PWs)   bands (ev):

   -56.9421 -56.8976 -56.8976 -47.8587 -47.8512 -47.8512 -47.7955 -47.7955
   -47.1496 -47.1496 -47.1487 -47.1391 -47.1388 -47.1388 -47.1198 -47.1198
   -47.0591 -47.0591 -47.0438 -47.0419 -47.0419 -47.0383 -47.0189 -47.0189
   -47.0171 -47.0011 -47.0004 -47.0004 -46.6468 -46.6463 -46.6463 -46.6420
   -46.6420 -46.6410 -46.5696 -46.5696 -46.5676 -46.5113 -46.5093 -46.5093
   -46.5036 -46.5028 -46.5028 -33.1761 -33.0888 -33.0888 -33.0790 -33.0372
   -33.0372 -32.8870 -32.7474 -32.7474 -15.6481 -15.2229 -14.5440 -14.5221
   -14.5221 -14.3644 -13.9943 -13.9943  -7.1196  -7.1196  -6.8065  -6.4486
    -6.2920  -6.2920  -6.0350  -5.8796  -5.3183  -5.3183  -4.5815  -4.4541
    -4.4541  -4.3708  -4.2704  -4.2704  -3.8982  -3.8939  -3.8939  -3.6849
    -3.0846  -3.0846  -2.6666  -2.3461  -2.3461  -2.0882  -2.0882  -1.3562
    -0.4277  -0.4277  -0.0639   0.2144   0.2144   0.5748   0.6350   0.6350
     0.8639   0.8639   1.2500   1.7939   2.5027   2.5027   2.5730   2.7507
     3.0865   3.2586

[...]

          k =-0.0962 0.1667 0.0000 (197376 PWs)   bands (ev):

[...]

          k =-0.2887-0.5000 0.0000 (197578 PWs)   bands (ev):

[...]

          k = 0.7698-0.3333 0.0000 (197529 PWs)   bands (ev):

   -56.9421 -56.8976 -56.8976 -47.8587 -47.8512 -47.8512 -47.7955 -47.7955
   -47.1496 -47.1493 -47.1490 -47.1390 -47.1389 -47.1387 -47.1199 -47.1199
   -47.0591 -47.0591 -47.0432 -47.0425 -47.0419 -47.0383 -47.0189 -47.0183
   -47.0177 -47.0009 -47.0007 -47.0004 -46.6467 -46.6465 -46.6463 -46.6420
   -46.6417 -46.6413 -46.5695 -46.5690 -46.5682 -46.5107 -46.5099 -46.5093
   -46.5034 -46.5030 -46.5028 -33.1724 -33.0877 -33.0861 -33.0770 -33.0383
   -33.0374 -32.8892 -32.7528 -32.7488 -15.5284 -15.0211 -14.8312 -14.6710
   -14.4530 -14.3240 -14.1393 -13.9776  -6.6434  -6.5974  -6.3066  -6.1496
    -6.0373  -5.7925  -5.6569  -5.6042  -5.5602  -5.4003  -5.2163  -5.0638
    -4.9283  -4.7635  -4.6085  -4.3057  -4.2021  -4.0340  -3.8180  -3.7589
    -3.5461  -3.3163  -3.2247  -2.9493  -2.6453  -2.2653  -2.1146  -1.2521
    -0.5403  -0.2867  -0.0423   0.0379   0.1012   0.2568   0.3757   0.6749
     0.7769   1.1185   1.3434   2.8693   3.1073   3.3484   3.4515   3.5045
     3.6251   3.7360

     the Fermi energy is    -1.2825 ev

     Writing config to output data dir ./out/_ph0/Nb3I8.q_2/Nb3I8.save/ :
     XML data file

     Nb3I8

     bravais-lattice index     =            0
     lattice parameter (alat)  =      14.4200  a.u.
     unit-cell volume          =   11694.9391 (a.u.)^3
     number of atoms/cell      =           11
     number of atomic types    =            2
     kinetic-energy cut-off    =     100.0000  Ry
     charge density cut-off    =     400.0000  Ry
     convergence threshold     =      1.0E-16
     beta                      =       0.7000
     number of iterations used =            4
     Exchange-correlation= PBE
                           (   1   4   3   4   0   0   0)

     celldm(1)=   14.41999  celldm(2)=    0.00000  celldm(3)=    0.00000
     celldm(4)=    0.00000  celldm(5)=    0.00000  celldm(6)=    0.00000

     crystal axes: (cart. coord. in units of alat)
               a(1) = (  0.8660  0.5000  0.0000 )
               a(2) = ( -0.8660  0.5000  0.0000 )
               a(3) = (  0.0000  0.0000  4.5037 )

     reciprocal axes: (cart. coord. in units 2 pi/alat)
               b(1) = (  0.5774  1.0000 -0.0000 )
               b(2) = ( -0.5774  1.0000  0.0000 )
               b(3) = (  0.0000 -0.0000  0.2220 )

     Atoms inside the unit cell:

     Cartesian axes

     site n.  atom      mass           positions (alat units)
        1  Nb     92.9064   tau(    1) = (    0.63891    0.50000    0.44775  )
        2  Nb     92.9064   tau(    2) = (    0.11356    0.80332    0.44775  )
        3  Nb     92.9064   tau(    3) = (    0.11356    0.19668    0.44775  )
        4  I     126.9045   tau(    4) = (   -0.57776    0.50000    0.19700  )
        5  I     126.9045   tau(    5) = (   -0.14413    0.24964    0.19700  )
        6  I     126.9045   tau(    6) = (   -0.14413    0.75036    0.19700  )
        7  I     126.9045   tau(    7) = (    0.28868    0.50000    0.25576  )
        8  I     126.9045   tau(    8) = (   -0.00507    0.50000    0.64975  )
        9  I     126.9045   tau(    9) = (   -0.43048    0.74561    0.64975  )
       10  I     126.9045   tau(   10) = (   -0.43048    0.25439    0.64975  )
       11  I     126.9045   tau(   11) = (   -0.86603    0.50000    0.73043  )

     Computing dynamical matrix for
                    q = (   0.2886751  -0.5000000   0.0000000 )

      3 Sym.Ops. (with q -> -q+G )

     G cutoff = 2106.8320  (  49371 G-vectors)     FFT grid: ( 96, 96,432)

     number of k points=    26  Gaussian smearing, width (Ry)=  0.0037

     PseudoPot. # 1 for Nb read from file:
     /scratch-shared/mroesner/Nb3X8_cDFPT/pp/Nb_ONCV_PBE-1.2.upf
     MD5 check sum: 2c750ac0b6910ff4cf0ab5f6c4124a64
     Pseudo is Norm-conserving, Zval = 13.0
     Generated using ONCVPSP code by D. R. Hamann
     Using radial grid of  602 points,  6 beta functions with:
                l(1) =   0
                l(2) =   0
                l(3) =   1
                l(4) =   1
                l(5) =   2
                l(6) =   2

     PseudoPot. # 2 for I  read from file:
     /scratch-shared/mroesner/Nb3X8_cDFPT/pp/I_ONCV_PBE-1.2.upf
     MD5 check sum: 8277ef51204d8074ead4596f3b37a2aa
     Pseudo is Norm-conserving, Zval = 17.0
     Generated using ONCVPSP code by D. R. Hamann
     Using radial grid of  602 points,  6 beta functions with:
                l(1) =   0
                l(2) =   0
                l(3) =   1
                l(4) =   1
                l(5) =   2
                l(6) =   2

     Mode symmetry, C_s (m)     point group:

     Atomic displacements:
     There are   33 irreducible representations

[...]

     Representation    33      1 modes -  To be done

     Message from routine init_vloc:
     Interpolation table for Vloc re-allocated

     Alpha used in Ewald sum =   2.8000

     Reading Grimme-D3 Hessian from file: ./out/Nb3I8.hess

     Number of cells replicated along each semiaxis:    8   8   2
     Number of cells in the supercell:      1445
     Number of atoms in the supercell:     15895
     Hessian allocation dimension:   1573605

     Grimme-D3 Hessian read

     Computing dynamical matrix for q:     0.288675   -0.500000    0.000000

     Writing Hessian on file dynamical.false.dat

     Dynamical matrix computed

[...]

     Representation #  33 mode #  33

     Self-consistent Calculation

[...]

      thresh= 5.677E-09 alpha_mix =  0.700 |ddv_scf|^2 =  1.500E-17

     End of self-consistent calculation

     Convergence has been achieved

     Number of q in the star =    3
     List of q in the star:
          1   0.288675135  -0.500000000   0.000000000
          2  -0.577350269   0.000000000   0.000000000
          3   0.288675135   0.500000000   0.000000000

     Diagonalizing the dynamical matrix

     q = (    0.288675135  -0.500000000   0.000000000 )

     freq (    1) =       0.950829 [THz] =      31.716236 [cm-1]
     freq (    2) =       1.216723 [THz] =      40.585502 [cm-1]
     freq (    3) =       1.252166 [THz] =      41.767756 [cm-1]
     freq (    4) =       1.506917 [THz] =      50.265348 [cm-1]
     freq (    5) =       1.692049 [THz] =      56.440686 [cm-1]
     freq (    6) =       2.013598 [THz] =      67.166386 [cm-1]
     freq (    7) =       2.124610 [THz] =      70.869373 [cm-1]
     freq (    8) =       2.140672 [THz] =      71.405143 [cm-1]
     freq (    9) =       2.292963 [THz] =      76.485016 [cm-1]
     freq (   10) =       2.395282 [THz] =      79.897997 [cm-1]
     freq (   11) =       2.491866 [THz] =      83.119704 [cm-1]
     freq (   12) =       2.511716 [THz] =      83.781830 [cm-1]
     freq (   13) =       2.753699 [THz] =      91.853526 [cm-1]
     freq (   14) =       2.845985 [THz] =      94.931840 [cm-1]
     freq (   15) =       3.003960 [THz] =     100.201309 [cm-1]
     freq (   16) =       3.139412 [THz] =     104.719524 [cm-1]
     freq (   17) =       3.191465 [THz] =     106.455803 [cm-1]
     freq (   18) =       3.197118 [THz] =     106.644388 [cm-1]
     freq (   19) =       3.275902 [THz] =     109.272334 [cm-1]
     freq (   20) =       3.371478 [THz] =     112.460415 [cm-1]
     freq (   21) =       3.444511 [THz] =     114.896503 [cm-1]
     freq (   22) =       3.618013 [THz] =     120.683924 [cm-1]
     freq (   23) =       3.771503 [THz] =     125.803806 [cm-1]
     freq (   24) =       3.856907 [THz] =     128.652559 [cm-1]
     freq (   25) =       5.029583 [THz] =     167.768831 [cm-1]
     freq (   26) =       5.304481 [THz] =     176.938453 [cm-1]
     freq (   27) =       5.740530 [THz] =     191.483481 [cm-1]
     freq (   28) =       5.870376 [THz] =     195.814674 [cm-1]
     freq (   29) =       5.938665 [THz] =     198.092558 [cm-1]
     freq (   30) =       6.258055 [THz] =     208.746250 [cm-1]
     freq (   31) =       7.002679 [THz] =     233.584212 [cm-1]
     freq (   32) =       7.104794 [THz] =     236.990411 [cm-1]
     freq (   33) =       7.330239 [THz] =     244.510460 [cm-1]

     Mode symmetry, C_s (m)     point group:

     freq (   1-   1) =         31.7  [cm-1]   --> A'
     freq (   2-   2) =         40.6  [cm-1]   --> A'
     freq (   3-   3) =         41.8  [cm-1]   --> A''
     freq (   4-   4) =         50.3  [cm-1]   --> A''
     freq (   5-   5) =         56.4  [cm-1]   --> A''
     freq (   6-   6) =         67.2  [cm-1]   --> A'
     freq (   7-   7) =         70.9  [cm-1]   --> A'
     freq (   8-   8) =         71.4  [cm-1]   --> A''
     freq (   9-   9) =         76.5  [cm-1]   --> A'
     freq (  10-  10) =         79.9  [cm-1]   --> A'
     freq (  11-  11) =         83.1  [cm-1]   --> A''
     freq (  12-  12) =         83.8  [cm-1]   --> A'
     freq (  13-  13) =         91.9  [cm-1]   --> A''
     freq (  14-  14) =         94.9  [cm-1]   --> A'
     freq (  15-  15) =        100.2  [cm-1]   --> A''
     freq (  16-  16) =        104.7  [cm-1]   --> A'
     freq (  17-  17) =        106.5  [cm-1]   --> A''
     freq (  18-  18) =        106.6  [cm-1]   --> A'
     freq (  19-  19) =        109.3  [cm-1]   --> A'
     freq (  20-  20) =        112.5  [cm-1]   --> A''
     freq (  21-  21) =        114.9  [cm-1]   --> A'
     freq (  22-  22) =        120.7  [cm-1]   --> A'
     freq (  23-  23) =        125.8  [cm-1]   --> A''
     freq (  24-  24) =        128.7  [cm-1]   --> A'
     freq (  25-  25) =        167.8  [cm-1]   --> A''
     freq (  26-  26) =        176.9  [cm-1]   --> A'
     freq (  27-  27) =        191.5  [cm-1]   --> A''
     freq (  28-  28) =        195.8  [cm-1]   --> A'
     freq (  29-  29) =        198.1  [cm-1]   --> A''
     freq (  30-  30) =        208.7  [cm-1]   --> A'
     freq (  31-  31) =        233.6  [cm-1]   --> A'
     freq (  32-  32) =        237.0  [cm-1]   --> A''
     freq (  33-  33) =        244.5  [cm-1]   --> A'

     General routines

     Parallel routines

     INITIALIZATION:

     DYNAMICAL MATRIX:

                                        0.00s GPU  (    1513 calls)

                                        0.00s GPU  (      99 calls)

      General routines

      Additional routines
                                        0.00s GPU  (   78454 calls)
                                        0.00s GPU  (   78454 calls)

   This run was terminated on:  23:23:15   8May2025

   JOB DONE.