     Program PWSCF v.7.3.1 starts on  8May2025 at 11:16: 2

     Waiting for input...
     Reading input from standard input
Warning: card &CELL ignored
Warning: card / ignored
Warning: card &FCP ignored
Warning: card / ignored
Warning: card &RISM ignored
Warning: card / ignored

     Current dimensions of program PWSCF are:
     Max number of different atomic species (ntypx) = 10
     Max number of k-points (npk) =  40000
     Max angular momentum in pseudopotentials (lmaxx) =  4

     IMPORTANT: XC functional enforced from input :
     Exchange-correlation= PBE
                           (   1   4   3   4   0   0   0)
     Any further DFT definition will be discarded
     Please, verify this is what you really want

     Message from routine setup:
     using ibrav=0 with symmetry is DISCOURAGED, use correct ibrav instead

     K-points division:     npool     =      12
     R & G space division:  proc/nbgrp/npool/nimage =      32
     Subspace diagonalization in iterative solution of the eigenvalue problem:
     a serial algorithm will be used

     Message from routine divide_et_impera:
     suboptimal parallelization: some nodes have no k-points

     Using Slab Decomposition

     bravais-lattice index     =            0
     lattice parameter (alat)  =      14.4200  a.u.
     unit-cell volume          =   11694.9391 (a.u.)^3
     number of atoms/cell      =           11
     number of atomic types    =            2
     number of electrons       =       175.00
     number of Kohn-Sham states=          106
     kinetic-energy cutoff     =     100.0000  Ry
     charge density cutoff     =     400.0000  Ry
     scf convergence threshold =      1.0E-12
     mixing beta               =       0.7000
     number of iterations used =            8  plain     mixing
     Exchange-correlation= PBE
                           (   1   4   3   4   0   0   0)

     celldm(1)=  14.419985  celldm(2)=   0.000000  celldm(3)=   0.000000
     celldm(4)=   0.000000  celldm(5)=   0.000000  celldm(6)=   0.000000

     crystal axes: (cart. coord. in units of alat)
               a(1) = (   0.866025   0.500000   0.000000 )
               a(2) = (  -0.866025   0.500000   0.000000 )
               a(3) = (   0.000000   0.000000   4.503735 )

     reciprocal axes: (cart. coord. in units 2 pi/alat)
               b(1) = (  0.577350  1.000000 -0.000000 )
               b(2) = ( -0.577350  1.000000  0.000000 )
               b(3) = (  0.000000 -0.000000  0.222038 )

     PseudoPot. # 1 for Nb read from file:
     /scratch-shared/mroesner/Nb3X8_cDFPT/pp/Nb_ONCV_PBE-1.2.upf
     MD5 check sum: 2c750ac0b6910ff4cf0ab5f6c4124a64
     Pseudo is Norm-conserving, Zval = 13.0
     Generated using ONCVPSP code by D. R. Hamann
     Using radial grid of  602 points,  6 beta functions with:
                l(1) =   0
                l(2) =   0
                l(3) =   1
                l(4) =   1
                l(5) =   2
                l(6) =   2

     PseudoPot. # 2 for I  read from file:
     /scratch-shared/mroesner/Nb3X8_cDFPT/pp/I_ONCV_PBE-1.2.upf
     MD5 check sum: 8277ef51204d8074ead4596f3b37a2aa
     Pseudo is Norm-conserving, Zval = 17.0
     Generated using ONCVPSP code by D. R. Hamann
     Using radial grid of  602 points,  6 beta functions with:
                l(1) =   0
                l(2) =   0
                l(3) =   1
                l(4) =   1
                l(5) =   2
                l(6) =   2

     atomic species   valence    mass     pseudopotential
     Nb               13.00    92.90637     Nb( 1.00)
     I                17.00   126.90447     I ( 1.00)

      6 Sym. Ops. (no inversion) found

                                    s                        frac. trans.

      isym =  1     identity

 cryst.   s( 1) = (     1          0          0      )
                  (     0          1          0      )
                  (     0          0          1      )

 cart.    s( 1) = (  1.0000000  0.0000000  0.0000000 )
                  (  0.0000000  1.0000000  0.0000000 )
                  (  0.0000000  0.0000000  1.0000000 )

      isym =  2     120 deg rotation - cryst. axis [0,0,1]

[...]

      isym =  3     120 deg rotation - cryst. axis [0,0,-1]

[...]

      isym =  4     inv. 180 deg rotation - cart. axis [0,1,0]

[...]

      isym =  5     inv. 180 deg rotation - cryst. axis [1,-1,0]

[...]

      isym =  6     inv. 180 deg rotation - cryst. axis [2,1,0]

 cryst.   s( 6) = (    -1          0          0      )
                  (     1          1          0      )
                  (     0          0          1      )

 cart.    s( 6) = ( -0.5000000 -0.8660254  0.0000000 )
                  ( -0.8660254  0.5000000  0.0000000 )
                  (  0.0000000  0.0000000  1.0000000 )

   Cartesian axes

     site n.     atom                  positions (alat units)
         1        Nb     tau(   1) = (   0.6389149   0.5000000   0.4477546  )
         2        Nb     tau(   2) = (   0.1135552   0.8033165   0.4477546  )
         3        Nb     tau(   3) = (   0.1135552   0.1966835   0.4477546  )
         4        I      tau(   4) = (  -0.5777648   0.5000000   0.1969996  )
         5        I      tau(   5) = (  -0.1441303   0.2496410   0.1969996  )
         6        I      tau(   6) = (  -0.1441303   0.7503590   0.1969996  )
         7        I      tau(   7) = (   0.2886751   0.5000000   0.2557556  )
         8        I      tau(   8) = (  -0.0050724   0.5000000   0.6497473  )
         9        I      tau(   9) = (  -0.4304765   0.7456071   0.6497473  )
        10        I      tau(  10) = (  -0.4304765   0.2543929   0.6497473  )
        11        I      tau(  11) = (  -0.8660254   0.5000000   0.7304268  )

     DFT-D3 Dispersion Correction (no 3-body):
       Reference C6 values for interpolation:

         atom   Coordination number   C6
         Nb         0.000          2950.50
         Nb         1.954          1161.16
         Nb         2.922           857.79
         I          0.000           703.93
         I          0.997           717.00

       Values used:

         atom   Coordination number  R0_AB[au]  C6      C8
         Nb         7.889            3.647    857.79 111659.18
         Nb         7.889            3.647    857.79 111659.18
         Nb         7.889            3.647    857.79 111659.18
         I          3.584            3.532    717.00  65856.01
         I          3.584            3.532    717.00  65856.01
         I          3.584            3.532    717.00  65856.01
         I          4.863            3.532    717.00  65856.01
         I          3.796            3.532    717.00  65856.01
         I          3.796            3.532    717.00  65856.01
         I          3.796            3.532    717.00  65856.01
         I          4.206            3.532    717.00  65856.01

         Molecular C6 ( Ry / a.u.^6 ) =     90972.34

   Crystallographic axes

     site n.     atom                  positions (cryst. coord.)
         1        Nb     tau(   1) = (  0.8688777  0.1311223  0.0994185  )
         2        Nb     tau(   2) = (  0.8688777  0.7377554  0.0994185  )
         3        Nb     tau(   3) = (  0.2622446  0.1311223  0.0994185  )
         4        I      tau(   4) = (  0.1664273  0.8335727  0.0437414  )
         5        I      tau(   5) = (  0.1664273  0.3328546  0.0437414  )
         6        I      tau(   6) = (  0.6671454  0.8335727  0.0437414  )
         7        I      tau(   7) = (  0.6666667  0.3333333  0.0567874  )
         8        I      tau(   8) = (  0.4970714  0.5029286  0.1442685  )
         9        I      tau(   9) = (  0.4970714  0.9941429  0.1442685  )
        10        I      tau(  10) = (  0.0058571  0.5029286  0.1442685  )
        11        I      tau(  11) = ( -0.0000000  1.0000000  0.1621824  )

     number of k points=     7  Gaussian smearing, width (Ry)=  0.0037
                       cart. coord. in units 2pi/alat
        k(    1) = (   0.0000000   0.0000000   0.0000000), wk =   0.0555556
        k(    2) = (  -0.0962250   0.1666667   0.0000000), wk =   0.3333333
        k(    3) = (  -0.1924501   0.3333333   0.0000000), wk =   0.3333333
        k(    4) = (   0.2886751  -0.5000000   0.0000000), wk =   0.1666667
        k(    5) = (   0.0000000   0.3333333   0.0000000), wk =   0.3333333
        k(    6) = (  -0.0962250   0.5000000   0.0000000), wk =   0.6666667
        k(    7) = (   0.0000000   0.6666667   0.0000000), wk =   0.1111111

                       cryst. coord.
        k(    1) = (   0.0000000   0.0000000   0.0000000), wk =   0.0555556
        k(    2) = (   0.0000000   0.1666667   0.0000000), wk =   0.3333333
        k(    3) = (   0.0000000   0.3333333   0.0000000), wk =   0.3333333
        k(    4) = (   0.0000000  -0.5000000   0.0000000), wk =   0.1666667
        k(    5) = (   0.1666667   0.1666667   0.0000000), wk =   0.3333333
        k(    6) = (   0.1666667   0.3333333   0.0000000), wk =   0.6666667
        k(    7) = (   0.3333333   0.3333333   0.0000000), wk =   0.1111111

     Initial potential from superposition of free atoms

     starting charge     174.4575, renormalised to     175.0000

     negative rho (up, down):  2.206E-03 0.000E+00
     Starting wfcs are random

     Self-consistent Calculation

     iteration #  1     ecut=   100.00 Ry     beta= 0.70
     Davidson diagonalization with overlap

     ethr =  1.00E-02,  avg # of iterations = 15.7

     Threshold (ethr) on eigenvalues was too large:
     Diagonalizing with lowered threshold

     Davidson diagonalization with overlap

[...]

     negative rho (up, down):  3.352E-04 0.000E+00

     total energy              =   -1932.03033562 Ry
     estimated scf accuracy    <       0.67998208 Ry

[...]

     negative rho (up, down):  1.469E-08 0.000E+00

[...]

     c_bands:  2 eigenvalues not converged
     ethr =  1.38E-11,  avg # of iterations = 19.9

[...]

     c_bands:  1 eigenvalues not converged
     ethr =  2.08E-12,  avg # of iterations = 15.1

[...]

     total energy              =   -1932.42960433 Ry
     estimated scf accuracy    <          2.7E-12 Ry

     iteration # 17     ecut=   100.00 Ry     beta= 0.70
     Davidson diagonalization with overlap

     ethr =  1.00E-13,  avg # of iterations = 12.9

     End of self-consistent calculation

          k = 0.0000 0.0000 0.0000 (197283 PWs)   bands (ev):

   -56.9421 -56.8976 -56.8976 -47.8587 -47.8512 -47.8512 -47.7955 -47.7955
   -47.1496 -47.1496 -47.1487 -47.1391 -47.1388 -47.1388 -47.1198 -47.1198
   -47.0591 -47.0591 -47.0438 -47.0419 -47.0419 -47.0383 -47.0189 -47.0189
   -47.0171 -47.0011 -47.0004 -47.0004 -46.6468 -46.6463 -46.6463 -46.6420
   -46.6420 -46.6410 -46.5696 -46.5696 -46.5676 -46.5113 -46.5093 -46.5093
   -46.5036 -46.5028 -46.5028 -33.1761 -33.0888 -33.0888 -33.0790 -33.0372
   -33.0372 -32.8870 -32.7474 -32.7474 -15.6481 -15.2229 -14.5440 -14.5221
   -14.5221 -14.3644 -13.9943 -13.9943  -7.1196  -7.1196  -6.8065  -6.4486
    -6.2920  -6.2920  -6.0350  -5.8796  -5.3183  -5.3183  -4.5815  -4.4541
    -4.4541  -4.3708  -4.2704  -4.2704  -3.8982  -3.8940  -3.8940  -3.6849
    -3.0846  -3.0846  -2.6666  -2.3461  -2.3461  -2.0882  -2.0882  -1.3562
    -0.4277  -0.4277  -0.0639   0.2144   0.2144   0.5748   0.6350   0.6350
     0.8639   0.8639   1.2500   1.7939   2.5027   2.5027   2.5730   2.7507
     3.0865   3.2586

     occupation numbers
     1.0000   1.0000   1.0000   1.0000   1.0000   1.0000   1.0000   1.0000
     1.0000   1.0000   1.0000   1.0000   1.0000   1.0000   1.0000   1.0000
     1.0000   1.0000   1.0000   1.0000   1.0000   1.0000   1.0000   1.0000
     1.0000   1.0000   1.0000   1.0000   1.0000   1.0000   1.0000   1.0000
     1.0000   1.0000   1.0000   1.0000   1.0000   1.0000   1.0000   1.0000
     1.0000   1.0000   1.0000   1.0000   1.0000   1.0000   1.0000   1.0000
     1.0000   1.0000   1.0000   1.0000   1.0000   1.0000   1.0000   1.0000
     1.0000   1.0000   1.0000   1.0000   1.0000   1.0000   1.0000   1.0000
     1.0000   1.0000   1.0000   1.0000   1.0000   1.0000   1.0000   1.0000
     1.0000   1.0000   1.0000   1.0000   1.0000   1.0000   1.0000   1.0000
     1.0000   1.0000   1.0000   1.0000   1.0000   1.0000   1.0000   0.9815
     0.0000   0.0000   0.0000   0.0000   0.0000   0.0000   0.0000   0.0000
     0.0000   0.0000   0.0000   0.0000   0.0000   0.0000   0.0000   0.0000
     0.0000   0.0000

          k =-0.0962 0.1667 0.0000 (197376 PWs)   bands (ev):

[...]

          k =-0.0962 0.5000 0.0000 (197529 PWs)   bands (ev):

[...]

          k = 0.0000 0.6667 0.0000 (197613 PWs)   bands (ev):

   -56.9421 -56.8976 -56.8976 -47.8587 -47.8512 -47.8512 -47.7955 -47.7955
   -47.1496 -47.1492 -47.1491 -47.1390 -47.1389 -47.1387 -47.1199 -47.1199
   -47.0591 -47.0591 -47.0429 -47.0428 -47.0419 -47.0383 -47.0189 -47.0181
   -47.0179 -47.0008 -47.0007 -47.0004 -46.6466 -46.6465 -46.6463 -46.6420
   -46.6416 -46.6414 -46.5695 -46.5688 -46.5684 -46.5105 -46.5101 -46.5093
   -46.5033 -46.5031 -46.5028 -33.1719 -33.0870 -33.0863 -33.0767 -33.0380
   -33.0378 -32.8895 -32.7532 -32.7494 -15.5144 -14.9086 -14.8585 -14.8063
   -14.4172 -14.3143 -14.1773 -13.9649  -6.5944  -6.3797  -6.2913  -6.1922
    -5.8924  -5.7756  -5.7039  -5.6269  -5.3721  -5.3200  -5.2514  -5.1332
    -5.0143  -4.9837  -4.8276  -4.2255  -4.2190  -4.0252  -3.8701  -3.8024
    -3.4404  -3.3748  -3.2550  -3.1421  -2.6564  -2.2870  -2.1673  -1.1781
    -0.6174  -0.2278  -0.0653   0.0923   0.1074   0.1685   0.2751   0.7480
     0.9625   0.9664   1.2978   3.1781   3.2745   3.3824   3.4765   3.5579
     3.6330   3.6600

     occupation numbers
     1.0000   1.0000   1.0000   1.0000   1.0000   1.0000   1.0000   1.0000
     1.0000   1.0000   1.0000   1.0000   1.0000   1.0000   1.0000   1.0000
     1.0000   1.0000   1.0000   1.0000   1.0000   1.0000   1.0000   1.0000
     1.0000   1.0000   1.0000   1.0000   1.0000   1.0000   1.0000   1.0000
     1.0000   1.0000   1.0000   1.0000   1.0000   1.0000   1.0000   1.0000
     1.0000   1.0000   1.0000   1.0000   1.0000   1.0000   1.0000   1.0000
     1.0000   1.0000   1.0000   1.0000   1.0000   1.0000   1.0000   1.0000
     1.0000   1.0000   1.0000   1.0000   1.0000   1.0000   1.0000   1.0000
     1.0000   1.0000   1.0000   1.0000   1.0000   1.0000   1.0000   1.0000
     1.0000   1.0000   1.0000   1.0000   1.0000   1.0000   1.0000   1.0000
     1.0000   1.0000   1.0000   1.0000   1.0000   1.0000   1.0000   0.0016
     0.0000   0.0000   0.0000   0.0000   0.0000   0.0000   0.0000   0.0000
     0.0000   0.0000   0.0000   0.0000   0.0000   0.0000   0.0000   0.0000
     0.0000   0.0000

     the Fermi energy is    -1.2825 ev

!    total energy              =   -1932.42960433 Ry
     estimated scf accuracy    <          7.4E-14 Ry
     smearing contrib. (-TS)   =      -0.00142017 Ry
     internal energy E=F+TS    =   -1932.42818416 Ry

     The total energy is F=E-TS. E is the sum of the following terms:
     one-electron contribution =  -17021.47580483 Ry
     hartree contribution      =    8449.65906403 Ry
     xc contribution           =    -198.52500447 Ry
     ewald contribution        =    6838.06469353 Ry
     DFT-D3 Dispersion         =      -0.15113241 Ry

     convergence has been achieved in  17 iterations

     Forces acting on atoms (cartesian axes, Ry/au):

     atom    1 type  1   force =    -0.00018975    0.00000000    0.00022223
     atom    2 type  1   force =     0.00009487   -0.00016432    0.00022223
     atom    3 type  1   force =     0.00009487    0.00016432    0.00022223
     atom    4 type  2   force =    -0.00013011   -0.00000000   -0.00010471
     atom    5 type  2   force =     0.00006505   -0.00011267   -0.00010471
     atom    6 type  2   force =     0.00006505    0.00011267   -0.00010471
     atom    7 type  2   force =     0.00000000    0.00000000    0.00001035
     atom    8 type  2   force =     0.00001292    0.00000000   -0.00009436
     atom    9 type  2   force =    -0.00000646    0.00001119   -0.00009436
     atom   10 type  2   force =    -0.00000646   -0.00001119   -0.00009436
     atom   11 type  2   force =    -0.00000000   -0.00000000   -0.00007982
     The non-local contrib.  to forces
     atom    1 type  1   force =     0.15471480    0.00000000    0.03329542
     atom    2 type  1   force =    -0.07735740    0.13398695    0.03329542
     atom    3 type  1   force =    -0.07735740   -0.13398695    0.03329542
     atom    4 type  2   force =    -0.29527327   -0.00000000    0.43633741
     atom    5 type  2   force =     0.14763664   -0.25571416    0.43633741
     atom    6 type  2   force =     0.14763664    0.25571416    0.43633741
     atom    7 type  2   force =     0.00000000    0.00000000    0.38081660
     atom    8 type  2   force =     0.22320858   -0.00000000   -0.35427997
     atom    9 type  2   force =    -0.11160429    0.19330430   -0.35427997
     atom   10 type  2   force =    -0.11160429   -0.19330430   -0.35427997
     atom   11 type  2   force =     0.00000000    0.00000000   -0.62462185
     The ionic contribution  to forces
     atom    1 type  1   force =    -7.71949971   -0.00000000    2.07552463
     atom    2 type  1   force =     3.85974986   -6.68528285    2.07552463
     atom    3 type  1   force =     3.85974986    6.68528285    2.07552463
     atom    4 type  2   force =    11.82027587   -0.00000000 -106.50594791
     atom    5 type  2   force =    -5.91013793   10.23665918 -106.50594791
     atom    6 type  2   force =    -5.91013793  -10.23665918 -106.50594791
     atom    7 type  2   force =     0.00000000   -0.00000000  -85.53597014
     atom    8 type  2   force =    -5.72611748   -0.00000000   90.33826040
     atom    9 type  2   force =     2.86305874   -4.95896320   90.33826040
     atom   10 type  2   force =     2.86305874    4.95896320   90.33826040
     atom   11 type  2   force =    -0.00000000   -0.00000000  127.81245879
     The local contribution  to forces
     atom    1 type  1   force =     7.56449403    0.00000001   -2.10854360
     atom    2 type  1   force =    -3.78224699    6.55104402   -2.10854360
     atom    3 type  1   force =    -3.78224699   -6.55104399   -2.10854360
     atom    4 type  2   force =   -11.52531592    0.00000002  106.06826035
     atom    5 type  2   force =     5.76265795   -9.98121633  106.06826035
     atom    6 type  2   force =     5.76265795    9.98121638  106.06826035
     atom    7 type  2   force =     0.00000000    0.00000002   85.15618910
     atom    8 type  2   force =     5.50398817    0.00000001  -89.98355530
     atom    9 type  2   force =    -2.75199409    4.76659363  -89.98355530
     atom   10 type  2   force =    -2.75199409   -4.76659359  -89.98355530
     atom   11 type  2   force =    -0.00000002    0.00000002 -127.18680097
     The core correction contribution to forces
     atom    1 type  1   force =     0.00000000    0.00000000    0.00000000
     atom    2 type  1   force =     0.00000000    0.00000000    0.00000000
     atom    3 type  1   force =     0.00000000    0.00000000    0.00000000
     atom    4 type  2   force =     0.00000000    0.00000000    0.00000000
     atom    5 type  2   force =     0.00000000    0.00000000    0.00000000
     atom    6 type  2   force =     0.00000000    0.00000000    0.00000000
     atom    7 type  2   force =     0.00000000    0.00000000    0.00000000
     atom    8 type  2   force =     0.00000000    0.00000000    0.00000000
     atom    9 type  2   force =     0.00000000    0.00000000    0.00000000
     atom   10 type  2   force =     0.00000000    0.00000000    0.00000000
     atom   11 type  2   force =     0.00000000    0.00000000    0.00000000
     The Hubbard contrib.    to forces
     atom    1 type  1   force =     0.00000000    0.00000000    0.00000000
     atom    2 type  1   force =     0.00000000    0.00000000    0.00000000
     atom    3 type  1   force =     0.00000000    0.00000000    0.00000000
     atom    4 type  2   force =     0.00000000    0.00000000    0.00000000
     atom    5 type  2   force =     0.00000000    0.00000000    0.00000000
     atom    6 type  2   force =     0.00000000    0.00000000    0.00000000
     atom    7 type  2   force =     0.00000000    0.00000000    0.00000000
     atom    8 type  2   force =     0.00000000    0.00000000    0.00000000
     atom    9 type  2   force =     0.00000000    0.00000000    0.00000000
     atom   10 type  2   force =     0.00000000    0.00000000    0.00000000
     atom   11 type  2   force =     0.00000000    0.00000000    0.00000000
     The SCF correction term to forces
     atom    1 type  1   force =     0.00000032    0.00000000    0.00000007
     atom    2 type  1   force =    -0.00000016    0.00000028    0.00000007
     atom    3 type  1   force =    -0.00000016   -0.00000028    0.00000007
     atom    4 type  2   force =     0.00000004    0.00000000   -0.00000033
     atom    5 type  2   force =    -0.00000002    0.00000003   -0.00000033
     atom    6 type  2   force =    -0.00000002   -0.00000003   -0.00000033
     atom    7 type  2   force =    -0.00000000   -0.00000000    0.00000014
     atom    8 type  2   force =    -0.00000006   -0.00000000    0.00000015
     atom    9 type  2   force =     0.00000003   -0.00000005    0.00000015
     atom   10 type  2   force =     0.00000003    0.00000005    0.00000015
     atom   11 type  2   force =     0.00000000    0.00000000   -0.00000058

     DFT-D3 dispersion contribution to forces:
     atom    1 type  1   force =     0.00010081    0.00000000   -0.00004293
     atom    2 type  1   force =    -0.00005040    0.00008730   -0.00004293
     atom    3 type  1   force =    -0.00005040   -0.00008730   -0.00004293
     atom    4 type  2   force =     0.00018317    0.00000000    0.00125714
     atom    5 type  2   force =    -0.00009158    0.00015863    0.00125714
     atom    6 type  2   force =    -0.00009158   -0.00015863    0.00125714
     atom    7 type  2   force =     0.00000000    0.00000000   -0.00101397
     atom    8 type  2   force =    -0.00106632    0.00000000   -0.00050828
     atom    9 type  2   force =     0.00053316   -0.00092346   -0.00050828
     atom   10 type  2   force =     0.00053316    0.00092346   -0.00050828
     atom   11 type  2   force =    -0.00000000    0.00000000   -0.00110385

     Total force =     0.000611     Total SCF correction =     0.000001

     DFT-D3 dispersion Force =     0.003363

     Computing stress (Cartesian axis) and pressure

          total   stress  (Ry/bohr**3)                   (kbar)     P=       -0.03
  -0.00000018   0.00000000   0.00000000           -0.03        0.00        0.00
   0.00000000  -0.00000018   0.00000000            0.00       -0.03        0.00
   0.00000000   0.00000000  -0.00000025            0.00        0.00       -0.04

     kinetic stress (kbar)   6671.29      0.00      0.00
                                0.00   6671.29      0.00
                                0.00      0.00   6657.86

     local   stress (kbar)-204734.10      0.00     -0.00
                                0.00-204734.10      0.00
                               -0.00      0.00 201121.86

     nonloc. stress (kbar)   -532.05      0.00     -0.00
                                0.00   -532.05     -0.00
                               -0.00     -0.00   -525.51

     hartree stress (kbar) 102418.43      0.00      0.00
                                0.00 102418.43      0.00
                                0.00      0.00 -98552.61

     exc-cor stress (kbar)   -785.94      0.00      0.00
                                0.00   -785.94      0.00
                                0.00      0.00   -786.71

     corecor stress (kbar)      0.00      0.00      0.00
                                0.00      0.00      0.00
                                0.00      0.00      0.00

     ewald   stress (kbar)  96963.71     -0.00      0.00
                               -0.00  96963.71     -0.00
                                0.00     -0.00-107914.66

     hubbard stress (kbar)      0.00      0.00      0.00
                                0.00      0.00      0.00
                                0.00      0.00      0.00

     DFT-D   stress (kbar)     -1.36      0.00     -0.00
                                0.00     -1.36     -0.00
                               -0.00     -0.00     -0.25

     XDM     stress (kbar)      0.00      0.00      0.00
                                0.00      0.00      0.00
                                0.00      0.00      0.00

     dft-nl  stress (kbar)      0.00      0.00      0.00
                                0.00      0.00      0.00
                                0.00      0.00      0.00

     TS-vdW  stress (kbar)      0.00      0.00      0.00
                                0.00      0.00      0.00
                                0.00      0.00      0.00

     MDB     stress (kbar)      0.00      0.00      0.00
                                0.00      0.00      0.00
                                0.00      0.00      0.00

     3D-RISM stress (kbar)      0.00      0.00      0.00
                                0.00      0.00      0.00
                                0.00      0.00      0.00

     Writing all to output data dir ./out/Nb3I8.save/ :
     XML data file, charge density, pseudopotentials, collected wavefunctions

     General routines

     Parallel routines

   This run was terminated on:  11:18:28   8May2025

   JOB DONE.