     Program PHONON v.7.3.1 starts on 13Jul2025 at 15: 0:20

     Waiting for input...
     Reading input from standard input

     Reading xml data from directory:

     ./out/Nb3I8.save/

     K-points division:     npool     =      12
     R & G space division:  proc/nbgrp/npool/nimage =      32
     Subspace diagonalization in iterative solution of the eigenvalue problem:
     one sub-group per band group will be used

     IMPORTANT: XC functional enforced from input :
     Exchange-correlation= PBE
                           (   1   4   3   4   0   0   0)
     Any further DFT definition will be discarded
     Please, verify this is what you really want

     Using Slab Decomposition

     Message from routine divide_et_impera:
     suboptimal parallelization: some nodes have no k-points
     Reading collected, re-writing distributed wavefunctions in ./out/

     Saving dvscf to file. Distribute only q points, not irreducible representations.
        1 /   2 q-points for this run, from  2 to  2:
       N       xq(1)         xq(2)         xq(3)
       1   0.000000000   0.000000000   0.000000000
       2   0.288675135  -0.500000000   0.000000000

     Calculation of q =    0.2886751  -0.5000000   0.0000000

     Bands found: reading from ./out/_ph0/Nb3I8.q_2/

     Reading xml data from directory:

     ./out/_ph0/Nb3I8.q_2/Nb3I8.save/
     Message from routine qexsd_readschema :
     input info not found or not readable in xml file

     IMPORTANT: XC functional enforced from input :
     Exchange-correlation= PBE
                           (   1   4   3   4   0   0   0)
     Any further DFT definition will be discarded
     Please, verify this is what you really want

     Using Slab Decomposition

     read_file_new: Wavefunctions not in collected format?!?
     read_file: Wavefunctions in collected format not available

     Restart in Phonon calculation

     Nb3I8

     bravais-lattice index     =            0
     lattice parameter (alat)  =      14.4200  a.u.
     unit-cell volume          =   11694.9391 (a.u.)^3
     number of atoms/cell      =           22
     number of atomic types    =            2
     kinetic-energy cut-off    =     100.0000  Ry
     charge density cut-off    =     400.0000  Ry
     convergence threshold     =      1.0E-16
     beta                      =       0.4000
     number of iterations used =            4
     Exchange-correlation= PBE
                           (   1   4   3   4   0   0   0)

     celldm(1)=   14.41999  celldm(2)=    0.00000  celldm(3)=    0.00000
     celldm(4)=    0.00000  celldm(5)=    0.00000  celldm(6)=    0.00000

     crystal axes: (cart. coord. in units of alat)
               a(1) = (  0.8660  0.5000  0.0000 )
               a(2) = ( -0.8660  0.5000  0.0000 )
               a(3) = (  0.0000  0.0000  4.5037 )

     reciprocal axes: (cart. coord. in units 2 pi/alat)
               b(1) = (  0.5774  1.0000 -0.0000 )
               b(2) = ( -0.5774  1.0000  0.0000 )
               b(3) = (  0.0000 -0.0000  0.2220 )

     Atoms inside the unit cell:

     Cartesian axes

     site n.  atom      mass           positions (alat units)
        1  Nb     92.9064   tau(    1) = (   -1.21647    0.50000    1.35290  )
        2  Nb     92.9064   tau(    2) = (   -0.69080    0.19651    1.35290  )
        3  Nb     92.9064   tau(    3) = (   -0.69080    0.80349    1.35290  )
        4  Nb     92.9064   tau(    4) = (    0.63912    0.50000    0.44859  )
        5  Nb     92.9064   tau(    5) = (    0.11345    0.80349    0.44859  )
        6  Nb     92.9064   tau(    6) = (    0.11345    0.19651    0.44859  )
        7  I     126.9045   tau(    7) = (    0.28868    0.50000    1.07176  )
        8  I     126.9045   tau(    8) = (   -0.57015    0.50000    1.15278  )
        9  I     126.9045   tau(    9) = (   -0.14794    0.25624    1.15278  )
       10  I     126.9045   tau(   10) = (   -0.14794    0.74376    1.15278  )
       11  I     126.9045   tau(   11) = (   -0.86603    0.50000    1.54446  )
       12  I     126.9045   tau(   12) = (    0.00115    0.50000    1.60450  )
       13  I     126.9045   tau(   13) = (   -0.43359    0.75100    1.60450  )
       14  I     126.9045   tau(   14) = (   -0.43359    0.24900    1.60450  )
       15  I     126.9045   tau(   15) = (   -0.57850    0.50000    0.19699  )
       16  I     126.9045   tau(   16) = (   -0.14376    0.24900    0.19699  )
       17  I     126.9045   tau(   17) = (   -0.14376    0.75100    0.19699  )
       18  I     126.9045   tau(   18) = (    0.28868    0.50000    0.25702  )
       19  I     126.9045   tau(   19) = (   -0.00720    0.50000    0.64873  )
       20  I     126.9045   tau(   20) = (   -0.42941    0.74377    0.64873  )
       21  I     126.9045   tau(   21) = (   -0.42941    0.25623    0.64873  )
       22  I     126.9045   tau(   22) = (   -0.86603    0.50000    0.72973  )

     Computing dynamical matrix for
                    q = (   0.2886751  -0.5000000   0.0000000 )

      3 Sym.Ops. (with q -> -q+G )

     G cutoff = 2106.8320  (  49371 G-vectors)     FFT grid: ( 96, 96,432)

     number of k points=    26  Gaussian smearing, width (Ry)=  0.0037

     PseudoPot. # 1 for Nb read from file:
     /scratch-shared/mroesner/Nb3X8_cDFPT/pp/Nb_ONCV_PBE-1.2.upf
     MD5 check sum: 2c750ac0b6910ff4cf0ab5f6c4124a64
     Pseudo is Norm-conserving, Zval = 13.0
     Generated using ONCVPSP code by D. R. Hamann
     Using radial grid of  602 points,  6 beta functions with:
                l(1) =   0
                l(2) =   0
                l(3) =   1
                l(4) =   1
                l(5) =   2
                l(6) =   2

     PseudoPot. # 2 for I  read from file:
     /scratch-shared/mroesner/Nb3X8_cDFPT/pp/I_ONCV_PBE-1.2.upf
     MD5 check sum: 8277ef51204d8074ead4596f3b37a2aa
     Pseudo is Norm-conserving, Zval = 17.0
     Generated using ONCVPSP code by D. R. Hamann
     Using radial grid of  602 points,  6 beta functions with:
                l(1) =   0
                l(2) =   0
                l(3) =   1
                l(4) =   1
                l(5) =   2
                l(6) =   2

     Mode symmetry, C_s (m)     point group:

     Atomic displacements:
     There are   66 irreducible representations

     Representation     1      1 modes -  Done

[...]

     Representation    36      1 modes -  Done

     Representation    37      1 modes -  To be done

[...]

     Representation    66      1 modes -  To be done

     Message from routine init_vloc:
     Interpolation table for Vloc re-allocated

     Representation #  37 mode #  37

     Self-consistent Calculation

      thresh= 1.068E-08 alpha_mix =  0.400 |ddv_scf|^2 =  8.546E-16

[...]

     End of self-consistent calculation

     Convergence has been achieved

[...]

     Representation #  66 mode #  66

     Self-consistent Calculation

[...]

      thresh= 1.371E-09 alpha_mix =  0.400 |ddv_scf|^2 =  3.909E-17

     End of self-consistent calculation

     Convergence has been achieved

     Number of q in the star =    3
     List of q in the star:
          1   0.288675135  -0.500000000   0.000000000
          2  -0.577350269  -0.000000000   0.000000000
          3   0.288675135   0.500000000   0.000000000

     Diagonalizing the dynamical matrix

     q = (    0.288675135  -0.500000000   0.000000000 )

     freq (    1) =       0.976590 [THz] =      32.575540 [cm-1]
     freq (    2) =       1.102191 [THz] =      36.765130 [cm-1]
     freq (    3) =       1.269379 [THz] =      42.341919 [cm-1]
     freq (    4) =       1.304150 [THz] =      43.501767 [cm-1]
     freq (    5) =       1.320832 [THz] =      44.058206 [cm-1]
     freq (    6) =       1.343019 [THz] =      44.798278 [cm-1]
     freq (    7) =       1.539109 [THz] =      51.339149 [cm-1]
     freq (    8) =       1.602054 [THz] =      53.438768 [cm-1]
     freq (    9) =       1.737410 [THz] =      57.953746 [cm-1]
     freq (   10) =       1.795305 [THz] =      59.884913 [cm-1]
     freq (   11) =       2.035665 [THz] =      67.902463 [cm-1]
     freq (   12) =       2.071465 [THz] =      69.096624 [cm-1]
     freq (   13) =       2.186658 [THz] =      72.939070 [cm-1]
     freq (   14) =       2.191488 [THz] =      73.100182 [cm-1]
     freq (   15) =       2.245697 [THz] =      74.908402 [cm-1]
     freq (   16) =       2.248312 [THz] =      74.995608 [cm-1]
     freq (   17) =       2.360011 [THz] =      78.721507 [cm-1]
     freq (   18) =       2.378428 [THz] =      79.335815 [cm-1]
     freq (   19) =       2.428661 [THz] =      81.011424 [cm-1]
     freq (   20) =       2.501736 [THz] =      83.448927 [cm-1]
     freq (   21) =       2.522862 [THz] =      84.153634 [cm-1]
     freq (   22) =       2.523961 [THz] =      84.190273 [cm-1]
     freq (   23) =       2.604000 [THz] =      86.860079 [cm-1]
     freq (   24) =       2.664805 [THz] =      88.888328 [cm-1]
     freq (   25) =       2.777802 [THz] =      92.657507 [cm-1]
     freq (   26) =       2.788390 [THz] =      93.010688 [cm-1]
     freq (   27) =       2.882436 [THz] =      96.147716 [cm-1]
     freq (   28) =       2.888554 [THz] =      96.351783 [cm-1]
     freq (   29) =       3.013813 [THz] =     100.529972 [cm-1]
     freq (   30) =       3.035702 [THz] =     101.260124 [cm-1]
     freq (   31) =       3.143256 [THz] =     104.847741 [cm-1]
     freq (   32) =       3.157100 [THz] =     105.309525 [cm-1]
     freq (   33) =       3.224843 [THz] =     107.569188 [cm-1]
     freq (   34) =       3.251296 [THz] =     108.451575 [cm-1]
     freq (   35) =       3.263929 [THz] =     108.872957 [cm-1]
     freq (   36) =       3.290015 [THz] =     109.743076 [cm-1]
     freq (   37) =       3.332307 [THz] =     111.153784 [cm-1]
     freq (   38) =       3.382990 [THz] =     112.844412 [cm-1]
     freq (   39) =       3.419168 [THz] =     114.051162 [cm-1]
     freq (   40) =       3.427737 [THz] =     114.337006 [cm-1]
     freq (   41) =       3.457757 [THz] =     115.338372 [cm-1]
     freq (   42) =       3.472730 [THz] =     115.837798 [cm-1]
     freq (   43) =       3.671214 [THz] =     122.458515 [cm-1]
     freq (   44) =       3.685048 [THz] =     122.919957 [cm-1]
     freq (   45) =       3.816522 [THz] =     127.305478 [cm-1]
     freq (   46) =       3.834045 [THz] =     127.889963 [cm-1]
     freq (   47) =       3.879745 [THz] =     129.414350 [cm-1]
     freq (   48) =       3.886015 [THz] =     129.623502 [cm-1]
     freq (   49) =       5.077899 [THz] =     169.380472 [cm-1]
     freq (   50) =       5.093002 [THz] =     169.884264 [cm-1]
     freq (   51) =       5.343070 [THz] =     178.225635 [cm-1]
     freq (   52) =       5.353602 [THz] =     178.576943 [cm-1]
     freq (   53) =       5.755550 [THz] =     191.984470 [cm-1]
     freq (   54) =       5.769547 [THz] =     192.451384 [cm-1]
     freq (   55) =       5.930152 [THz] =     197.808578 [cm-1]
     freq (   56) =       5.937842 [THz] =     198.065074 [cm-1]
     freq (   57) =       5.939758 [THz] =     198.129012 [cm-1]
     freq (   58) =       5.952186 [THz] =     198.543558 [cm-1]
     freq (   59) =       6.260296 [THz] =     208.821003 [cm-1]
     freq (   60) =       6.270362 [THz] =     209.156754 [cm-1]
     freq (   61) =       7.104554 [THz] =     236.982425 [cm-1]
     freq (   62) =       7.112501 [THz] =     237.247508 [cm-1]
     freq (   63) =       7.150226 [THz] =     238.505880 [cm-1]
     freq (   64) =       7.151447 [THz] =     238.546589 [cm-1]
     freq (   65) =       7.369669 [THz] =     245.825709 [cm-1]
     freq (   66) =       7.379520 [THz] =     246.154294 [cm-1]

     Mode symmetry, C_s (m)     point group:

     freq (   1-   1) =         32.6  [cm-1]   --> A'
     freq (   2-   2) =         36.8  [cm-1]   --> A'
     freq (   3-   3) =         42.3  [cm-1]   --> A''
     freq (   4-   4) =         43.5  [cm-1]   --> A'
     freq (   5-   5) =         44.1  [cm-1]   --> A''
     freq (   6-   6) =         44.8  [cm-1]   --> A'
     freq (   7-   7) =         51.3  [cm-1]   --> A''
     freq (   8-   8) =         53.4  [cm-1]   --> A''
     freq (   9-   9) =         58.0  [cm-1]   --> A''
     freq (  10-  10) =         59.9  [cm-1]   --> A''
     freq (  11-  11) =         67.9  [cm-1]   --> A'
     freq (  12-  12) =         69.1  [cm-1]   --> A'
     freq (  13-  13) =         72.9  [cm-1]   --> A''
     freq (  14-  14) =         73.1  [cm-1]   --> A'
     freq (  15-  15) =         74.9  [cm-1]   --> A'
     freq (  16-  16) =         75.0  [cm-1]   --> A''
     freq (  17-  17) =         78.7  [cm-1]   --> A'
     freq (  18-  18) =         79.3  [cm-1]   --> A'
     freq (  19-  19) =         81.0  [cm-1]   --> A'
     freq (  20-  20) =         83.4  [cm-1]   --> A'
     freq (  21-  21) =         84.2  [cm-1]   --> A''
     freq (  22-  22) =         84.2  [cm-1]   --> A''
     freq (  23-  23) =         86.9  [cm-1]   --> A'
     freq (  24-  24) =         88.9  [cm-1]   --> A'
     freq (  25-  25) =         92.7  [cm-1]   --> A''
     freq (  26-  26) =         93.0  [cm-1]   --> A''
     freq (  27-  27) =         96.1  [cm-1]   --> A'
     freq (  28-  28) =         96.4  [cm-1]   --> A'
     freq (  29-  29) =        100.5  [cm-1]   --> A''
     freq (  30-  30) =        101.3  [cm-1]   --> A''
     freq (  31-  31) =        104.8  [cm-1]   --> A'
     freq (  32-  32) =        105.3  [cm-1]   --> A'
     freq (  33-  33) =        107.6  [cm-1]   --> A''
     freq (  34-  34) =        108.5  [cm-1]   --> A'
     freq (  35-  35) =        108.9  [cm-1]   --> A'
     freq (  36-  36) =        109.7  [cm-1]   --> A''
     freq (  37-  37) =        111.2  [cm-1]   --> A'
     freq (  38-  38) =        112.8  [cm-1]   --> A'
     freq (  39-  39) =        114.1  [cm-1]   --> A''
     freq (  40-  40) =        114.3  [cm-1]   --> A''
     freq (  41-  41) =        115.3  [cm-1]   --> A'
     freq (  42-  42) =        115.8  [cm-1]   --> A'
     freq (  43-  43) =        122.5  [cm-1]   --> A'
     freq (  44-  44) =        122.9  [cm-1]   --> A'
     freq (  45-  45) =        127.3  [cm-1]   --> A''
     freq (  46-  46) =        127.9  [cm-1]   --> A''
     freq (  47-  47) =        129.4  [cm-1]   --> A'
     freq (  48-  48) =        129.6  [cm-1]   --> A'
     freq (  49-  49) =        169.4  [cm-1]   --> A''
     freq (  50-  50) =        169.9  [cm-1]   --> A''
     freq (  51-  51) =        178.2  [cm-1]   --> A'
     freq (  52-  52) =        178.6  [cm-1]   --> A'
     freq (  53-  53) =        192.0  [cm-1]   --> A''
     freq (  54-  54) =        192.5  [cm-1]   --> A''
     freq (  55-  55) =        197.8  [cm-1]   --> A'
     freq (  56-  56) =        198.1  [cm-1]   --> A''
     freq (  57-  57) =        198.1  [cm-1]   --> A''
     freq (  58-  58) =        198.5  [cm-1]   --> A'
     freq (  59-  59) =        208.8  [cm-1]   --> A'
     freq (  60-  60) =        209.2  [cm-1]   --> A'
     freq (  61-  61) =        237.0  [cm-1]   --> A'
     freq (  62-  62) =        237.2  [cm-1]   --> A'
     freq (  63-  63) =        238.5  [cm-1]   --> A''
     freq (  64-  64) =        238.5  [cm-1]   --> A''
     freq (  65-  65) =        245.8  [cm-1]   --> A'
     freq (  66-  66) =        246.2  [cm-1]   --> A'

     INITIALIZATION:

     DYNAMICAL MATRIX:

                                        0.00s GPU  (     772 calls)

                                        0.00s GPU  (      60 calls)

      General routines

      Additional routines
                                        0.00s GPU  (   40434 calls)
                                        0.00s GPU  (   40434 calls)

   This run was terminated on:  19:49:44  13Jul2025

   JOB DONE.