     Program PWSCF v.7.3.1 starts on 10Jul2025 at 10:24:35

     Waiting for input...
     Reading input from standard input
Warning: card &CELL ignored
Warning: card / ignored
Warning: card &FCP ignored
Warning: card / ignored
Warning: card &RISM ignored
Warning: card / ignored

     Current dimensions of program PWSCF are:
     Max number of different atomic species (ntypx) = 10
     Max number of k-points (npk) =  40000
     Max angular momentum in pseudopotentials (lmaxx) =  4

     IMPORTANT: XC functional enforced from input :
     Exchange-correlation= PBE
                           (   1   4   3   4   0   0   0)
     Any further DFT definition will be discarded
     Please, verify this is what you really want

     Message from routine setup:
     using ibrav=0 with symmetry is DISCOURAGED, use correct ibrav instead

     K-points division:     npool     =      12
     R & G space division:  proc/nbgrp/npool/nimage =      32
     Subspace diagonalization in iterative solution of the eigenvalue problem:
     one sub-group per band group will be used

     Message from routine divide_et_impera:
     suboptimal parallelization: some nodes have no k-points

     Using Slab Decomposition

     bravais-lattice index     =            0
     lattice parameter (alat)  =      14.4200  a.u.
     unit-cell volume          =   11694.9391 (a.u.)^3
     number of atoms/cell      =           22
     number of atomic types    =            2
     number of electrons       =       350.00
     number of Kohn-Sham states=          210
     kinetic-energy cutoff     =     100.0000  Ry
     charge density cutoff     =     400.0000  Ry
     scf convergence threshold =      1.0E-12
     mixing beta               =       0.7000
     number of iterations used =            8  plain     mixing
     Exchange-correlation= PBE
                           (   1   4   3   4   0   0   0)

     celldm(1)=  14.419985  celldm(2)=   0.000000  celldm(3)=   0.000000
     celldm(4)=   0.000000  celldm(5)=   0.000000  celldm(6)=   0.000000

     crystal axes: (cart. coord. in units of alat)
               a(1) = (   0.866025   0.500000   0.000000 )
               a(2) = (  -0.866025   0.500000   0.000000 )
               a(3) = (   0.000000   0.000000   4.503735 )

     reciprocal axes: (cart. coord. in units 2 pi/alat)
               b(1) = (  0.577350  1.000000 -0.000000 )
               b(2) = ( -0.577350  1.000000  0.000000 )
               b(3) = (  0.000000 -0.000000  0.222038 )

     PseudoPot. # 1 for Nb read from file:
     /scratch-shared/mroesner/Nb3X8_cDFPT/pp/Nb_ONCV_PBE-1.2.upf
     MD5 check sum: 2c750ac0b6910ff4cf0ab5f6c4124a64
     Pseudo is Norm-conserving, Zval = 13.0
     Generated using ONCVPSP code by D. R. Hamann
     Using radial grid of  602 points,  6 beta functions with:
                l(1) =   0
                l(2) =   0
                l(3) =   1
                l(4) =   1
                l(5) =   2
                l(6) =   2

     PseudoPot. # 2 for I  read from file:
     /scratch-shared/mroesner/Nb3X8_cDFPT/pp/I_ONCV_PBE-1.2.upf
     MD5 check sum: 8277ef51204d8074ead4596f3b37a2aa
     Pseudo is Norm-conserving, Zval = 17.0
     Generated using ONCVPSP code by D. R. Hamann
     Using radial grid of  602 points,  6 beta functions with:
                l(1) =   0
                l(2) =   0
                l(3) =   1
                l(4) =   1
                l(5) =   2
                l(6) =   2

     atomic species   valence    mass     pseudopotential
     Nb               13.00    92.90637     Nb( 1.00)
     I                17.00   126.90447     I ( 1.00)

      6 Sym. Ops. (no inversion) found

                                    s                        frac. trans.

      isym =  1     identity

 cryst.   s( 1) = (     1          0          0      )
                  (     0          1          0      )
                  (     0          0          1      )

 cart.    s( 1) = (  1.0000000  0.0000000  0.0000000 )
                  (  0.0000000  1.0000000  0.0000000 )
                  (  0.0000000  0.0000000  1.0000000 )

      isym =  2     120 deg rotation - cryst. axis [0,0,1]

[...]

      isym =  3     120 deg rotation - cryst. axis [0,0,-1]

[...]

      isym =  4     inv. 180 deg rotation - cart. axis [0,1,0]

[...]

      isym =  5     inv. 180 deg rotation - cryst. axis [1,-1,0]

[...]

      isym =  6     inv. 180 deg rotation - cryst. axis [2,1,0]

 cryst.   s( 6) = (    -1          0          0      )
                  (     1          1          0      )
                  (     0          0          1      )

 cart.    s( 6) = ( -0.5000000 -0.8660254  0.0000000 )
                  ( -0.8660254  0.5000000  0.0000000 )
                  (  0.0000000  0.0000000  1.0000000 )

   Cartesian axes

     site n.     atom                  positions (alat units)
         1        Nb     tau(   1) = (  -1.2164679   0.5000000   1.3529040  )
         2        Nb     tau(   2) = (  -0.6908042   0.1965079   1.3529040  )
         3        Nb     tau(   3) = (  -0.6908042   0.8034921   1.3529040  )
         4        Nb     tau(   4) = (   0.6391177   0.5000000   0.4485885  )
         5        Nb     tau(   5) = (   0.1134539   0.8034922   0.4485885  )
         6        Nb     tau(   6) = (   0.1134539   0.1965078   0.4485885  )
         7        I      tau(   7) = (   0.2886751   0.5000000   1.0717629  )
         8        I      tau(   8) = (  -0.5701475   0.5000000   1.1527770  )
         9        I      tau(   9) = (  -0.1479390   0.2562378   1.1527770  )
        10        I      tau(  10) = (  -0.1479390   0.7437622   1.1527770  )
        11        I      tau(  11) = (  -0.8660254   0.5000000   1.5444571  )
        12        I      tau(  12) = (   0.0011535   0.5000000   1.6044953  )
        13        I      tau(  13) = (  -0.4335894   0.7509989   1.6044953  )
        14        I      tau(  14) = (  -0.4335894   0.2490011   1.6044953  )
        15        I      tau(  15) = (  -0.5785037   0.5000000   0.1969940  )
        16        I      tau(  16) = (  -0.1437608   0.2490011   0.1969940  )
        17        I      tau(  17) = (  -0.1437608   0.7509989   0.1969940  )
        18        I      tau(  18) = (   0.2886751   0.5000000   0.2570227  )
        19        I      tau(  19) = (  -0.0071964   0.5000000   0.6487288  )
        20        I      tau(  20) = (  -0.4294145   0.7437677   0.6487288  )
        21        I      tau(  21) = (  -0.4294145   0.2562323   0.6487288  )
        22        I      tau(  22) = (  -0.8660254   0.5000000   0.7297303  )

     DFT-D3 Dispersion Correction (no 3-body):
       Reference C6 values for interpolation:

         atom   Coordination number   C6
         Nb         0.000          2950.50
         Nb         1.954          1161.16
         Nb         2.922           857.79
         I          0.000           703.93
         I          0.997           717.00

       Values used:

         atom   Coordination number  R0_AB[au]  C6      C8
         Nb         7.908            3.647    857.79 111659.18
         Nb         7.908            3.647    857.79 111659.18
         Nb         7.908            3.647    857.79 111659.18
         Nb         7.907            3.647    857.79 111659.18
         Nb         7.907            3.647    857.79 111659.18
         Nb         7.907            3.647    857.79 111659.18
         I          4.710            3.532    717.00  65856.01
         I          4.071            3.532    717.00  65856.01
         I          4.071            3.532    717.00  65856.01
         I          4.071            3.532    717.00  65856.01
         I          4.873            3.532    717.00  65856.01
         I          3.592            3.532    717.00  65856.01
         I          3.592            3.532    717.00  65856.01
         I          3.592            3.532    717.00  65856.01
         I          3.592            3.532    717.00  65856.01
         I          3.592            3.532    717.00  65856.01
         I          3.592            3.532    717.00  65856.01
         I          4.873            3.532    717.00  65856.01
         I          4.071            3.532    717.00  65856.01
         I          4.071            3.532    717.00  65856.01
         I          4.071            3.532    717.00  65856.01
         I          4.710            3.532    717.00  65856.01

         Molecular C6 ( Ry / a.u.^6 ) =    363889.37

   Crystallographic axes

     site n.     atom                  positions (cryst. coord.)
         1        Nb     tau(   1) = ( -0.2023281  1.2023281  0.3003960  )
         2        Nb     tau(   2) = ( -0.2023281  0.5953439  0.3003960  )
         3        Nb     tau(   3) = (  0.4046561  1.2023281  0.3003960  )
         4        Nb     tau(   4) = (  0.8689948  0.1310052  0.0996037  )
         5        Nb     tau(   5) = (  0.8689948  0.7379895  0.0996037  )
         6        Nb     tau(   6) = (  0.2620105  0.1310052  0.0996037  )
         7        I      tau(   7) = (  0.6666667  0.3333333  0.2379720  )
         8        I      tau(   8) = (  0.1708252  0.8291748  0.2559602  )
         9        I      tau(   9) = (  0.1708252  0.3416504  0.2559602  )
        10        I      tau(  10) = (  0.6583496  0.8291748  0.2559602  )
        11        I      tau(  11) = ( -0.0000000  1.0000000  0.3429280  )
        12        I      tau(  12) = (  0.5006660  0.4993340  0.3562588  )
        13        I      tau(  13) = (  0.5006660  1.0013319  0.3562588  )
        14        I      tau(  14) = ( -0.0013319  0.4993340  0.3562588  )
        15        I      tau(  15) = (  0.1660007  0.8339993  0.0437401  )
        16        I      tau(  16) = (  0.1660007  0.3320014  0.0437401  )
        17        I      tau(  17) = (  0.6679986  0.8339993  0.0437401  )
        18        I      tau(  18) = (  0.6666667  0.3333333  0.0570688  )
        19        I      tau(  19) = (  0.4958451  0.5041549  0.1440424  )
        20        I      tau(  20) = (  0.4958451  0.9916903  0.1440424  )
        21        I      tau(  21) = (  0.0083097  0.5041549  0.1440424  )
        22        I      tau(  22) = ( -0.0000000  1.0000000  0.1620278  )

     number of k points=     7  Gaussian smearing, width (Ry)=  0.0037
                       cart. coord. in units 2pi/alat
        k(    1) = (   0.0000000   0.0000000   0.0000000), wk =   0.0555556
        k(    2) = (  -0.0962250   0.1666667   0.0000000), wk =   0.3333333
        k(    3) = (  -0.1924501   0.3333333   0.0000000), wk =   0.3333333
        k(    4) = (   0.2886751  -0.5000000   0.0000000), wk =   0.1666667
        k(    5) = (   0.0000000   0.3333333   0.0000000), wk =   0.3333333
        k(    6) = (  -0.0962250   0.5000000   0.0000000), wk =   0.6666667
        k(    7) = (   0.0000000   0.6666667   0.0000000), wk =   0.1111111

                       cryst. coord.
        k(    1) = (   0.0000000   0.0000000   0.0000000), wk =   0.0555556
        k(    2) = (   0.0000000   0.1666667   0.0000000), wk =   0.3333333
        k(    3) = (   0.0000000   0.3333333   0.0000000), wk =   0.3333333
        k(    4) = (   0.0000000  -0.5000000   0.0000000), wk =   0.1666667
[...]
     atom    2 type  1   force =    -0.00006858    0.00011878   -0.00005609
     atom    3 type  1   force =    -0.00006858   -0.00011878   -0.00005609
     atom    4 type  1   force =    -0.00013699   -0.00000000    0.00005622
     atom    5 type  1   force =     0.00006849   -0.00011864    0.00005622
     atom    6 type  1   force =     0.00006849    0.00011864    0.00005622
     atom    7 type  2   force =     0.00000000    0.00000000    0.00005726
     atom    8 type  2   force =     0.00001075   -0.00000000    0.00004987
     atom    9 type  2   force =    -0.00000538    0.00000931    0.00004987
     atom   10 type  2   force =    -0.00000538   -0.00000931    0.00004987
     atom   11 type  2   force =     0.00000000    0.00000000   -0.00001404
     atom   12 type  2   force =     0.00004426   -0.00000000    0.00002644
     atom   13 type  2   force =    -0.00002213    0.00003833    0.00002644
     atom   14 type  2   force =    -0.00002213   -0.00003833    0.00002644
     atom   15 type  2   force =    -0.00004415    0.00000000   -0.00002637
     atom   16 type  2   force =     0.00002208   -0.00003824   -0.00002637
     atom   17 type  2   force =     0.00002208    0.00003824   -0.00002637
     atom   18 type  2   force =     0.00000000   -0.00000000    0.00001410
     atom   19 type  2   force =    -0.00001093    0.00000000   -0.00004998
     atom   20 type  2   force =     0.00000546   -0.00000946   -0.00004998
     atom   21 type  2   force =     0.00000546    0.00000946   -0.00004998
     atom   22 type  2   force =     0.00000000    0.00000000   -0.00005759
     The non-local contrib.  to forces
     atom    1 type  1   force =    -0.15608853   -0.00000000   -0.03374667
     atom    2 type  1   force =     0.07804426   -0.13517663   -0.03374667
     atom    3 type  1   force =     0.07804426    0.13517663   -0.03374667
     atom    4 type  1   force =     0.15609158    0.00000000    0.03375100
     atom    5 type  1   force =    -0.07804579    0.13517927    0.03375100
     atom    6 type  1   force =    -0.07804579   -0.13517927    0.03375100
     atom    7 type  2   force =     0.00000000   -0.00000000    0.66830191
     atom    8 type  2   force =    -0.24849181    0.00000000    0.33597037
     atom    9 type  2   force =     0.12424590   -0.21520022    0.33597037
     atom   10 type  2   force =     0.12424590    0.21520022    0.33597037
     atom   11 type  2   force =    -0.00000000    0.00000000   -0.37912969
     atom   12 type  2   force =     0.29376299    0.00000000   -0.43788291
     atom   13 type  2   force =    -0.14688150    0.25440622   -0.43788291
     atom   14 type  2   force =    -0.14688150   -0.25440622   -0.43788291
     atom   15 type  2   force =    -0.29375351   -0.00000000    0.43787629
     atom   16 type  2   force =     0.14687676   -0.25439801    0.43787629
     atom   17 type  2   force =     0.14687676    0.25439801    0.43787629
     atom   18 type  2   force =     0.00000000   -0.00000000    0.37911904
     atom   19 type  2   force =     0.24846807    0.00000000   -0.33596030
     atom   20 type  2   force =    -0.12423403    0.21517966   -0.33596030
     atom   21 type  2   force =    -0.12423403   -0.21517966   -0.33596030
     atom   22 type  2   force =     0.00000000    0.00000000   -0.66828700
     The ionic contribution  to forces
     atom    1 type  1   force =     7.64754931   -0.00000000   92.19787506
     atom    2 type  1   force =    -3.82377466    6.62297198   92.19787506
     atom    3 type  1   force =    -3.82377466   -6.62297198   92.19787507
     atom    4 type  1   force =    -7.64809672   -0.00000000  -92.19851282
     atom    5 type  1   force =     3.82404836   -6.62344604  -92.19851282
     atom    6 type  1   force =     3.82404836    6.62344604  -92.19851282
     atom    7 type  2   force =     0.00000000   -0.00000000   18.79902331
     atom    8 type  2   force =     7.08670369   -0.00000000   52.05961852
     atom    9 type  2   force =    -3.54335185    6.13726542   52.05961852
     atom   10 type  2   force =    -3.54335185   -6.13726542   52.05961852
     atom   11 type  2   force =     0.00000000   -0.00000000  191.32044534
     atom   12 type  2   force =   -11.90241775   -0.00000000  207.14454960
     atom   13 type  2   force =     5.95120888  -10.30779614  207.14454961
     atom   14 type  2   force =     5.95120888   10.30779614  207.14454961
     atom   15 type  2   force =    11.90256403   -0.00000000 -207.14306120
     atom   16 type  2   force =    -5.95128202   10.30792282 -207.14306120
     atom   17 type  2   force =    -5.95128202  -10.30792282 -207.14306120
     atom   18 type  2   force =     0.00000000   -0.00000000 -191.32161972
     atom   19 type  2   force =    -7.08766684   -0.00000000  -52.05949811
     atom   20 type  2   force =     3.54383342   -6.13809953  -52.05949811
     atom   21 type  2   force =     3.54383342    6.13809954  -52.05949811
     atom   22 type  2   force =    -0.00000000   -0.00000000  -18.80076211
     The local contribution  to forces
     atom    1 type  1   force =    -7.49132787    0.00000001  -92.16206224
     atom    2 type  1   force =     3.74566390   -6.48768022  -92.16206224
     atom    3 type  1   force =     3.74566390    6.48768025  -92.16206224
     atom    4 type  1   force =     7.49187173    0.00000001   92.16269840
     atom    5 type  1   force =    -3.74593585    6.48815127   92.16269840
     atom    6 type  1   force =    -3.74593585   -6.48815124   92.16269840
     atom    7 type  2   force =     0.00000000    0.00000002  -19.46706175
     atom    8 type  2   force =    -6.83974465    0.00000001  -52.39362024
     atom    9 type  2   force =     3.41987232   -5.92339262  -52.39362024
     atom   10 type  2   force =     3.41987232    5.92339267  -52.39362024
     atom   11 type  2   force =    -0.00000002    0.00000002 -190.94167097
     atom   12 type  2   force =    11.60888270    0.00000002 -206.70501696
     atom   13 type  2   force =    -5.80444136   10.05358735 -206.70501696
     atom   14 type  2   force =    -5.80444136  -10.05358730 -206.70501696
     atom   15 type  2   force =   -11.60903829    0.00000002  206.70353722
     atom   16 type  2   force =     5.80451914  -10.05372203  206.70353723
     atom   17 type  2   force =     5.80451914   10.05372208  206.70353722
     atom   18 type  2   force =     0.00000000    0.00000002  190.94285947
     atom   19 type  2   force =     6.84073209    0.00000001   52.39349295
     atom   20 type  2   force =    -3.42036605    5.92424782   52.39349296
     atom   21 type  2   force =    -3.42036605   -5.92424778   52.39349295
     atom   22 type  2   force =    -0.00000002    0.00000002   19.46878819
     The core correction contribution to forces
     atom    1 type  1   force =     0.00000000    0.00000000    0.00000000
     atom    2 type  1   force =     0.00000000    0.00000000    0.00000000
     atom    3 type  1   force =     0.00000000    0.00000000    0.00000000
     atom    4 type  1   force =     0.00000000    0.00000000    0.00000000
     atom    5 type  1   force =     0.00000000    0.00000000    0.00000000
     atom    6 type  1   force =     0.00000000    0.00000000    0.00000000
     atom    7 type  2   force =     0.00000000    0.00000000    0.00000000
     atom    8 type  2   force =     0.00000000    0.00000000    0.00000000
     atom    9 type  2   force =     0.00000000    0.00000000    0.00000000
     atom   10 type  2   force =     0.00000000    0.00000000    0.00000000
     atom   11 type  2   force =     0.00000000    0.00000000    0.00000000
     atom   12 type  2   force =     0.00000000    0.00000000    0.00000000
     atom   13 type  2   force =     0.00000000    0.00000000    0.00000000
     atom   14 type  2   force =     0.00000000    0.00000000    0.00000000
     atom   15 type  2   force =     0.00000000    0.00000000    0.00000000
     atom   16 type  2   force =     0.00000000    0.00000000    0.00000000
     atom   17 type  2   force =     0.00000000    0.00000000    0.00000000
     atom   18 type  2   force =     0.00000000    0.00000000    0.00000000
     atom   19 type  2   force =     0.00000000    0.00000000    0.00000000
     atom   20 type  2   force =     0.00000000    0.00000000    0.00000000
     atom   21 type  2   force =     0.00000000    0.00000000    0.00000000
     atom   22 type  2   force =     0.00000000    0.00000000    0.00000000
     The Hubbard contrib.    to forces
     atom    1 type  1   force =     0.00000000    0.00000000    0.00000000
     atom    2 type  1   force =     0.00000000    0.00000000    0.00000000
     atom    3 type  1   force =     0.00000000    0.00000000    0.00000000
     atom    4 type  1   force =     0.00000000    0.00000000    0.00000000
     atom    5 type  1   force =     0.00000000    0.00000000    0.00000000
     atom    6 type  1   force =     0.00000000    0.00000000    0.00000000
     atom    7 type  2   force =     0.00000000    0.00000000    0.00000000
     atom    8 type  2   force =     0.00000000    0.00000000    0.00000000
     atom    9 type  2   force =     0.00000000    0.00000000    0.00000000
     atom   10 type  2   force =     0.00000000    0.00000000    0.00000000
     atom   11 type  2   force =     0.00000000    0.00000000    0.00000000
     atom   12 type  2   force =     0.00000000    0.00000000    0.00000000
     atom   13 type  2   force =     0.00000000    0.00000000    0.00000000
     atom   14 type  2   force =     0.00000000    0.00000000    0.00000000
     atom   15 type  2   force =     0.00000000    0.00000000    0.00000000
     atom   16 type  2   force =     0.00000000    0.00000000    0.00000000
     atom   17 type  2   force =     0.00000000    0.00000000    0.00000000
     atom   18 type  2   force =     0.00000000    0.00000000    0.00000000
     atom   19 type  2   force =     0.00000000    0.00000000    0.00000000
     atom   20 type  2   force =     0.00000000    0.00000000    0.00000000
     atom   21 type  2   force =     0.00000000    0.00000000    0.00000000
     atom   22 type  2   force =     0.00000000    0.00000000    0.00000000
     The SCF correction term to forces
     atom    1 type  1   force =     0.00000024    0.00000000    0.00000087
     atom    2 type  1   force =    -0.00000012    0.00000021    0.00000087
     atom    3 type  1   force =    -0.00000012   -0.00000021    0.00000087
     atom    4 type  1   force =     0.00000028    0.00000000    0.00000000
     atom    5 type  1   force =    -0.00000014    0.00000024    0.00000000
     atom    6 type  1   force =    -0.00000014   -0.00000024    0.00000000
     atom    7 type  2   force =     0.00000000    0.00000000   -0.00000018
     atom    8 type  2   force =     0.00000017   -0.00000000    0.00000023
     atom    9 type  2   force =    -0.00000009    0.00000015    0.00000023
     atom   10 type  2   force =    -0.00000009   -0.00000015    0.00000023
     atom   11 type  2   force =    -0.00000000    0.00000000    0.00000082
     atom   12 type  2   force =     0.00000002    0.00000000    0.00000095
     atom   13 type  2   force =    -0.00000001    0.00000002    0.00000095
     atom   14 type  2   force =    -0.00000001   -0.00000002    0.00000095
     atom   15 type  2   force =    -0.00000030   -0.00000000   -0.00000003
     atom   16 type  2   force =     0.00000015   -0.00000026   -0.00000003
     atom   17 type  2   force =     0.00000015    0.00000026   -0.00000003
     atom   18 type  2   force =     0.00000000    0.00000000   -0.00000043
     atom   19 type  2   force =    -0.00000049    0.00000000    0.00000044
     atom   20 type  2   force =     0.00000024   -0.00000042    0.00000044
     atom   21 type  2   force =     0.00000024    0.00000042    0.00000044
     atom   22 type  2   force =     0.00000000    0.00000000    0.00000030

     DFT-D3 dispersion contribution to forces:
     atom    1 type  1   force =     0.00000398    0.00000000   -0.00212139
     atom    2 type  1   force =    -0.00000199    0.00000345   -0.00212139
     atom    3 type  1   force =    -0.00000199   -0.00000345   -0.00212139
     atom    4 type  1   force =    -0.00000387    0.00000000    0.00212135
     atom    5 type  1   force =     0.00000193   -0.00000335    0.00212135
     atom    6 type  1   force =     0.00000193    0.00000335    0.00212135
     atom    7 type  2   force =     0.00000000    0.00000000   -0.00020431
     atom    8 type  2   force =     0.00154336    0.00000000   -0.00191729
     atom    9 type  2   force =    -0.00077168    0.00133659   -0.00191729
     atom   10 type  2   force =    -0.00077168   -0.00133659   -0.00191729
     atom   11 type  2   force =    -0.00000000    0.00000000    0.00034218
     atom   12 type  2   force =    -0.00018370    0.00000000   -0.00162253
     atom   13 type  2   force =     0.00009185   -0.00015909   -0.00162253
     atom   14 type  2   force =     0.00009185    0.00015909   -0.00162253
     atom   15 type  2   force =     0.00018391    0.00000000    0.00162307
     atom   16 type  2   force =    -0.00009195    0.00015927    0.00162307
     atom   17 type  2   force =    -0.00009195   -0.00015927    0.00162307
     atom   18 type  2   force =     0.00000000    0.00000000   -0.00034254
     atom   19 type  2   force =    -0.00154378    0.00000000    0.00191676
     atom   20 type  2   force =     0.00077189   -0.00133695    0.00191676
     atom   21 type  2   force =     0.00077189    0.00133695    0.00191676
     atom   22 type  2   force =    -0.00000000    0.00000000    0.00020475

     Total force =     0.000413     Total SCF correction =     0.000003

     DFT-D3 dispersion Force =     0.008926

     Computing stress (Cartesian axis) and pressure

          total   stress  (Ry/bohr**3)                   (kbar)     P=       -0.03
  -0.00000007   0.00000000   0.00000000           -0.01        0.00        0.00
   0.00000000  -0.00000007   0.00000000            0.00       -0.01        0.00
   0.00000000   0.00000000  -0.00000037            0.00        0.00       -0.05

     kinetic stress (kbar)  13344.09     -0.00     -0.00
                               -0.00  13344.09     -0.00
                                0.00      0.00  13318.32

     local   stress (kbar)-440919.62     -0.00     -0.00
                               -0.00-440919.62      0.00
                               -0.00      0.00 433902.37

     nonloc. stress (kbar)  -1064.00      0.00     -0.00
                                0.00  -1064.00     -0.00
                                0.00     -0.00  -1051.69

     hartree stress (kbar) 221033.11      0.00      0.00
                                0.00 221033.11     -0.00
                                0.00     -0.00-213387.01

     exc-cor stress (kbar)  -1572.34      0.00      0.00
                                0.00  -1572.34      0.00
                                0.00      0.00  -1573.35

     corecor stress (kbar)      0.00      0.00      0.00
                                0.00      0.00      0.00
                                0.00      0.00      0.00

     ewald   stress (kbar) 209182.34      0.00      0.00
                                0.00 209182.34      0.00
                                0.00      0.00-231205.95

     hubbard stress (kbar)      0.00      0.00      0.00
                                0.00      0.00      0.00
                                0.00      0.00      0.00

     DFT-D   stress (kbar)     -3.59     -0.00     -0.00
                               -0.00     -3.59      0.00
                               -0.00      0.00     -2.76

     XDM     stress (kbar)      0.00      0.00      0.00
                                0.00      0.00      0.00
                                0.00      0.00      0.00

     dft-nl  stress (kbar)      0.00      0.00      0.00
                                0.00      0.00      0.00
                                0.00      0.00      0.00

     TS-vdW  stress (kbar)      0.00      0.00      0.00
                                0.00      0.00      0.00
                                0.00      0.00      0.00

     MDB     stress (kbar)      0.00      0.00      0.00
                                0.00      0.00      0.00
                                0.00      0.00      0.00

     3D-RISM stress (kbar)      0.00      0.00      0.00
                                0.00      0.00      0.00
                                0.00      0.00      0.00

     Writing all to output data dir ./out/Nb3I8.save/ :
     XML data file, charge density, pseudopotentials, collected wavefunctions

     General routines

     Parallel routines

   This run was terminated on:  10:27:22  10Jul2025

   JOB DONE.