     Program PHONON v.7.3.1 starts on 21May2025 at 17:13:27

     Waiting for input...
     Reading input from standard input
     Run is not recoverable starting from scratch

     Reading xml data from directory:

     ./out/Nb3F8.save/

     K-points division:     npool     =      12
     R & G space division:  proc/nbgrp/npool/nimage =      32
     Subspace diagonalization in iterative solution of the eigenvalue problem:
     a serial algorithm will be used

     IMPORTANT: XC functional enforced from input :
     Exchange-correlation= PBE
                           (   1   4   3   4   0   0   0)
     Any further DFT definition will be discarded
     Please, verify this is what you really want

     Using Slab Decomposition

     Reading collected, re-writing distributed wavefunctions in ./out/

     Dynamical matrices for ( 2, 2, 2)  uniform grid of q-points
     (   4 q-points):
       N         xq(1)         xq(2)         xq(3)
       1   0.000000000   0.000000000   0.000000000
       2   0.000000000   0.000000000  -0.303645024
       3   0.288675135  -0.500000000   0.101215008
       4   0.288675135  -0.500000000  -0.202430016

     Number and degeneracy of irreps per q-point
       N         xq(1)         xq(2)         xq(3)   N irreps
       1   0.000000000   0.000000000   0.000000000      44
        1   1   1   1   1   1   1   1   1   1   1   2   2   2   2   2   2   2
   2   2   2   2   1   1   1   1   1   1   1   1   1   1   1   2   2   2
   2   2   2   2   2   2   2   2
       2   0.000000000   0.000000000  -0.303645024      44
        1   1   1   1   1   1   1   1   1   1   1   2   2   2   2   2   2   2
   2   2   2   2   1   1   1   1   1   1   1   1   1   1   1   2   2   2
   2   2   2   2   2   2   2   2
       3   0.288675135  -0.500000000   0.101215008      66
     No degeneracy
       4   0.288675135  -0.500000000  -0.202430016      66
     No degeneracy

     Saving dvscf to file. Distribute only q points, not irreducible representations.

     Calculation of q =    0.0000000   0.0000000   0.0000000

     Nb3F8

     bravais-lattice index     =            0
     lattice parameter (alat)  =      11.1557  a.u.
     unit-cell volume          =    1979.8333 (a.u.)^3
     number of atoms/cell      =           22
     number of atomic types    =            2
     kinetic-energy cut-off    =     100.0000  Ry
     charge density cut-off    =     400.0000  Ry
     convergence threshold     =      1.0E-16
     beta                      =       0.7000
     number of iterations used =            4
     Exchange-correlation= PBE
                           (   1   4   3   4   0   0   0)

     celldm(1)=   11.15573  celldm(2)=    0.00000  celldm(3)=    0.00000
     celldm(4)=    0.00000  celldm(5)=    0.00000  celldm(6)=    0.00000

     crystal axes: (cart. coord. in units of alat)
               a(1) = (  0.8660  0.5000  0.0000 )
               a(2) = ( -0.8660  0.5000  0.0000 )
               a(3) = ( -0.5774  0.0000  1.6467 )

     reciprocal axes: (cart. coord. in units 2 pi/alat)
               b(1) = (  0.5774  1.0000  0.2024 )
               b(2) = ( -0.5774  1.0000 -0.2024 )
               b(3) = (  0.0000 -0.0000  0.6073 )

     Atoms inside the unit cell:

     Cartesian axes

     site n.  atom      mass           positions (alat units)
        1  Nb     92.9064   tau(    1) = (    0.25220    0.00000   -0.41166  )
        2  Nb     92.9064   tau(    2) = (   -0.12610    0.21841   -0.41166  )
        3  Nb     92.9064   tau(    3) = (   -0.12610   -0.21841   -0.41166  )
        4  Nb     92.9064   tau(    4) = (   -0.25220   -0.00000    0.41166  )
        5  Nb     92.9064   tau(    5) = (    0.12610   -0.21841    0.41166  )
        6  Nb     92.9064   tau(    6) = (    0.12610    0.21841    0.41166  )
        7  F      18.9984   tau(    7) = (    0.00000    0.00000   -0.67560  )
        8  F      18.9984   tau(    8) = (    0.85697    0.00000   -0.59581  )
        9  F      18.9984   tau(    9) = (    0.43754    0.24216   -0.59581  )
       10  F      18.9984   tau(   10) = (    0.43754   -0.24216   -0.59581  )
       11  F      18.9984   tau(   11) = (    0.57735   -0.00000   -0.22131  )
       12  F      18.9984   tau(   12) = (   -0.28359    0.00000   -0.18697  )
       13  F      18.9984   tau(   13) = (    0.14179   -0.24560   -0.18697  )
       14  F      18.9984   tau(   14) = (    0.14179    0.24560   -0.18697  )
       15  F      18.9984   tau(   15) = (    0.28359   -0.00000    0.18697  )
       16  F      18.9984   tau(   16) = (   -0.14179    0.24560    0.18697  )
       17  F      18.9984   tau(   17) = (   -0.14179   -0.24560    0.18697  )
       18  F      18.9984   tau(   18) = (   -0.57735    0.00000    0.22131  )
       19  F      18.9984   tau(   19) = (   -0.85697   -0.00000    0.59581  )
       20  F      18.9984   tau(   20) = (   -0.43754   -0.24216    0.59581  )
       21  F      18.9984   tau(   21) = (   -0.43754    0.24216    0.59581  )
       22  F      18.9984   tau(   22) = (   -0.00000   -0.00000    0.67560  )

     Computing dynamical matrix for
                    q = (   0.0000000   0.0000000   0.0000000 )

     13 Sym.Ops. (with q -> -q+G )

     G cutoff = 1260.9456  (   8359 G-vectors)     FFT grid: (180,180,180)

     number of k points=    32  Gaussian smearing, width (Ry)=  0.0037

     PseudoPot. # 1 for Nb read from file:
     ./pp/Nb_ONCV_PBE-1.2.upf
     MD5 check sum: 2c750ac0b6910ff4cf0ab5f6c4124a64
     Pseudo is Norm-conserving, Zval = 13.0
     Generated using ONCVPSP code by D. R. Hamann
     Using radial grid of  602 points,  6 beta functions with:
                l(1) =   0
                l(2) =   0
                l(3) =   1
                l(4) =   1
                l(5) =   2
                l(6) =   2

     PseudoPot. # 2 for F  read from file:
     ./pp/F_ONCV_PBE-1.2.upf
     MD5 check sum: 1d8275f47d602dd53cad6bcdc0eda7dc
     Pseudo is Norm-conserving, Zval =  7.0
     Generated using ONCVPSP code by D. R. Hamann
     Using radial grid of  602 points,  4 beta functions with:
                l(1) =   0
                l(2) =   0
                l(3) =   1
                l(4) =   1

     Mode symmetry, D_3d (-3m)  point group:

     Atomic displacements:
     There are   44 irreducible representations

     Representation     1      1 modes -  To be done

[...]

     Alpha used in Ewald sum =   2.8000

     Reading Grimme-D3 Hessian from file: ./out/Nb3F8.hess

     Number of cells replicated along each semiaxis:   10  10   6
     Number of cells in the supercell:      5733
     Number of atoms in the supercell:    126126
     Hessian allocation dimension:  24972948

     Grimme-D3 Hessian read

     Computing dynamical matrix for q:     0.000000    0.000000    0.000000

     Writing Hessian on file dynamical.false.dat

     Dynamical matrix computed

     Representation #   1 mode #   1

     Self-consistent Calculation

     Pert. #  1: Fermi energy shift (Ry) =    -4.1096E-01    -5.0487E-29

      thresh= 1.000E-02 alpha_mix =  0.700 |ddv_scf|^2 =  1.900E-07

[...]

     End of self-consistent calculation

     Convergence has been achieved

[...]

     Representation #  12 modes #  12  13

[...]

     Pert. #  1: Fermi energy shift (Ry) =    -3.3658E-28     1.1958E-43
     Pert. #  2: Fermi energy shift (Ry) =    -3.3658E-28     2.0926E-43

[...]

     Number of q in the star =    1
     List of q in the star:
          1   0.000000000   0.000000000   0.000000000

     Diagonalizing the dynamical matrix

     q = (    0.000000000   0.000000000   0.000000000 )

     freq (    1) =      -0.359413 [THz] =     -11.988725 [cm-1]
     freq (    2) =      -0.175637 [THz] =      -5.858618 [cm-1]
     freq (    3) =      -0.175637 [THz] =      -5.858618 [cm-1]
     freq (    4) =       1.002552 [THz] =      33.441527 [cm-1]
     freq (    5) =       1.002552 [THz] =      33.441527 [cm-1]
     freq (    6) =       1.961756 [THz] =      65.437121 [cm-1]
     freq (    7) =       3.071402 [THz] =     102.450931 [cm-1]
     freq (    8) =       3.371225 [THz] =     112.451962 [cm-1]
     freq (    9) =       3.555214 [THz] =     118.589168 [cm-1]
     freq (   10) =       3.555214 [THz] =     118.589168 [cm-1]
     freq (   11) =       3.861215 [THz] =     128.796273 [cm-1]
     freq (   12) =       3.861215 [THz] =     128.796273 [cm-1]
     freq (   13) =       4.598875 [THz] =     153.401952 [cm-1]
     freq (   14) =       4.598875 [THz] =     153.401952 [cm-1]
     freq (   15) =       4.966176 [THz] =     165.653799 [cm-1]
     freq (   16) =       4.966176 [THz] =     165.653799 [cm-1]
     freq (   17) =       5.357442 [THz] =     178.705036 [cm-1]
     freq (   18) =       6.143284 [THz] =     204.917911 [cm-1]
     freq (   19) =       6.143284 [THz] =     204.917911 [cm-1]
     freq (   20) =       6.586530 [THz] =     219.702990 [cm-1]
     freq (   21) =       6.608329 [THz] =     220.430126 [cm-1]
     freq (   22) =       6.608329 [THz] =     220.430126 [cm-1]
     freq (   23) =       6.918240 [THz] =     230.767640 [cm-1]
     freq (   24) =       6.944094 [THz] =     231.630042 [cm-1]
     freq (   25) =       8.197036 [THz] =     273.423695 [cm-1]
     freq (   26) =       8.197036 [THz] =     273.423695 [cm-1]
     freq (   27) =       8.259758 [THz] =     275.515863 [cm-1]
     freq (   28) =       8.259758 [THz] =     275.515863 [cm-1]
     freq (   29) =       8.719908 [THz] =     290.864831 [cm-1]
     freq (   30) =       8.719908 [THz] =     290.864831 [cm-1]
     freq (   31) =       8.773851 [THz] =     292.664180 [cm-1]
     freq (   32) =       8.773851 [THz] =     292.664180 [cm-1]
     freq (   33) =       9.595210 [THz] =     320.061742 [cm-1]
     freq (   34) =       9.595210 [THz] =     320.061742 [cm-1]
     freq (   35) =       9.619366 [THz] =     320.867497 [cm-1]
     freq (   36) =       9.699632 [THz] =     323.544900 [cm-1]
     freq (   37) =       9.699632 [THz] =     323.544900 [cm-1]
     freq (   38) =       9.792073 [THz] =     326.628407 [cm-1]
     freq (   39) =      10.057972 [THz] =     335.497824 [cm-1]
     freq (   40) =      10.358520 [THz] =     345.523045 [cm-1]
     freq (   41) =      10.483415 [THz] =     349.689068 [cm-1]
     freq (   42) =      10.576721 [THz] =     352.801436 [cm-1]
     freq (   43) =      10.712072 [THz] =     357.316267 [cm-1]
     freq (   44) =      10.712072 [THz] =     357.316267 [cm-1]
     freq (   45) =      10.811744 [THz] =     360.640960 [cm-1]
     freq (   46) =      10.811744 [THz] =     360.640960 [cm-1]
     freq (   47) =      10.815412 [THz] =     360.763326 [cm-1]
     freq (   48) =      10.815412 [THz] =     360.763326 [cm-1]
     freq (   49) =      10.944520 [THz] =     365.069904 [cm-1]
     freq (   50) =      10.944520 [THz] =     365.069904 [cm-1]
     freq (   51) =      11.412587 [THz] =     380.682918 [cm-1]
     freq (   52) =      11.485457 [THz] =     383.113604 [cm-1]
     freq (   53) =      11.882422 [THz] =     396.354948 [cm-1]
     freq (   54) =      11.882422 [THz] =     396.354948 [cm-1]
     freq (   55) =      12.236991 [THz] =     408.182088 [cm-1]
[...]
        19        F      tau(  19) = (  -0.8569726  -0.0000000   0.5958059  )
        20        F      tau(  20) = (  -0.4375391  -0.2421601   0.5958059  )
        21        F      tau(  21) = (  -0.4375391   0.2421601   0.5958059  )
        22        F      tau(  22) = (  -0.0000000  -0.0000000   0.6755959  )

     DFT-D3 Dispersion Correction (no 3-body):
       Reference C6 values for interpolation:

         atom   Coordination number   C6
         F          0.000            19.38
         F          0.998            14.27
         Nb         0.000          2950.50
         Nb         1.954          1161.16
         Nb         2.922           857.79

       Values used:

         atom   Coordination number  R0_AB[au]  C6      C8
         Nb         9.493            3.647    857.79 111659.18
         Nb         9.493            3.647    857.79 111659.18
         Nb         9.493            3.647    857.79 111659.18
         Nb         9.493            3.647    857.79 111659.18
         Nb         9.493            3.647    857.79 111659.18
         Nb         9.493            3.647    857.79 111659.18
         F          2.947            2.173     14.27    244.15
         F          2.035            2.173     14.27    244.15
         F          2.035            2.173     14.27    244.15
         F          2.035            2.173     14.27    244.15
         F          2.863            2.173     14.27    244.15
         F          2.050            2.173     14.27    244.15
         F          2.050            2.173     14.27    244.15
         F          2.050            2.173     14.27    244.15
         F          2.050            2.173     14.27    244.15
         F          2.050            2.173     14.27    244.15
         F          2.050            2.173     14.27    244.15
         F          2.863            2.173     14.27    244.15
         F          2.035            2.173     14.27    244.15
         F          2.035            2.173     14.27    244.15
         F          2.035            2.173     14.27    244.15
         F          2.947            2.173     14.27    244.15

         Molecular C6 ( Ry / a.u.^6 ) =     52655.74

[...]

     Number of k-points >= 100: set verbosity='high' to print them.

     The potential is recalculated from file :
     ./out/_ph0/Nb3F8.q_4/Nb3F8.save/charge-density

     Starting wfcs are    0 atomic +  114 random wfcs

     Band Structure Calculation
     CG style diagonalization
     c_bands:  1 eigenvalues not converged
     c_bands:  1 eigenvalues not converged
     c_bands:  1 eigenvalues not converged
     c_bands:  3 eigenvalues not converged
     c_bands:  4 eigenvalues not converged

     ethr =  5.26E-12,  avg # of iterations = 71.0

     End of band structure calculation

     Number of k-points >= 100: set verbosity='high' to print the bands.

     the Fermi energy is     9.3846 ev

     Writing config to output data dir ./out/_ph0/Nb3F8.q_4/Nb3F8.save/ :
     XML data file

     Nb3F8

     bravais-lattice index     =            0
     lattice parameter (alat)  =      11.1557  a.u.
     unit-cell volume          =    1979.8333 (a.u.)^3
     number of atoms/cell      =           22
     number of atomic types    =            2
     kinetic-energy cut-off    =     100.0000  Ry
     charge density cut-off    =     400.0000  Ry
     convergence threshold     =      1.0E-16
     beta                      =       0.7000
     number of iterations used =            4
     Exchange-correlation= PBE
                           (   1   4   3   4   0   0   0)

     celldm(1)=   11.15573  celldm(2)=    0.00000  celldm(3)=    0.00000
     celldm(4)=    0.00000  celldm(5)=    0.00000  celldm(6)=    0.00000

     crystal axes: (cart. coord. in units of alat)
               a(1) = (  0.8660  0.5000  0.0000 )
               a(2) = ( -0.8660  0.5000  0.0000 )
               a(3) = ( -0.5774  0.0000  1.6467 )

     reciprocal axes: (cart. coord. in units 2 pi/alat)
               b(1) = (  0.5774  1.0000  0.2024 )
               b(2) = ( -0.5774  1.0000 -0.2024 )
               b(3) = (  0.0000 -0.0000  0.6073 )

     Atoms inside the unit cell:

     Cartesian axes

     site n.  atom      mass           positions (alat units)
        1  Nb     92.9064   tau(    1) = (    0.25220    0.00000   -0.41166  )
        2  Nb     92.9064   tau(    2) = (   -0.12610    0.21841   -0.41166  )
        3  Nb     92.9064   tau(    3) = (   -0.12610   -0.21841   -0.41166  )
        4  Nb     92.9064   tau(    4) = (   -0.25220   -0.00000    0.41166  )
        5  Nb     92.9064   tau(    5) = (    0.12610   -0.21841    0.41166  )
        6  Nb     92.9064   tau(    6) = (    0.12610    0.21841    0.41166  )
        7  F      18.9984   tau(    7) = (    0.00000    0.00000   -0.67560  )
        8  F      18.9984   tau(    8) = (    0.85697    0.00000   -0.59581  )
        9  F      18.9984   tau(    9) = (    0.43754    0.24216   -0.59581  )
       10  F      18.9984   tau(   10) = (    0.43754   -0.24216   -0.59581  )
       11  F      18.9984   tau(   11) = (    0.57735   -0.00000   -0.22131  )
       12  F      18.9984   tau(   12) = (   -0.28359    0.00000   -0.18697  )
       13  F      18.9984   tau(   13) = (    0.14179   -0.24560   -0.18697  )
       14  F      18.9984   tau(   14) = (    0.14179    0.24560   -0.18697  )
       15  F      18.9984   tau(   15) = (    0.28359   -0.00000    0.18697  )
       16  F      18.9984   tau(   16) = (   -0.14179    0.24560    0.18697  )
       17  F      18.9984   tau(   17) = (   -0.14179   -0.24560    0.18697  )
       18  F      18.9984   tau(   18) = (   -0.57735    0.00000    0.22131  )
       19  F      18.9984   tau(   19) = (   -0.85697   -0.00000    0.59581  )
       20  F      18.9984   tau(   20) = (   -0.43754   -0.24216    0.59581  )
       21  F      18.9984   tau(   21) = (   -0.43754    0.24216    0.59581  )
       22  F      18.9984   tau(   22) = (   -0.00000   -0.00000    0.67560  )

     Computing dynamical matrix for
                    q = (   0.2886751  -0.5000000  -0.2024300 )

      5 Sym.Ops. (with q -> -q+G )

     G cutoff = 1260.9456  (   8359 G-vectors)     FFT grid: (180,180,180)

     number of k points=   136  Gaussian smearing, width (Ry)=  0.0037

     PseudoPot. # 1 for Nb read from file:
     ./pp/Nb_ONCV_PBE-1.2.upf
     MD5 check sum: 2c750ac0b6910ff4cf0ab5f6c4124a64
     Pseudo is Norm-conserving, Zval = 13.0
     Generated using ONCVPSP code by D. R. Hamann
     Using radial grid of  602 points,  6 beta functions with:
                l(1) =   0
                l(2) =   0
                l(3) =   1
                l(4) =   1
                l(5) =   2
                l(6) =   2

     PseudoPot. # 2 for F  read from file:
     ./pp/F_ONCV_PBE-1.2.upf
     MD5 check sum: 1d8275f47d602dd53cad6bcdc0eda7dc
     Pseudo is Norm-conserving, Zval =  7.0
     Generated using ONCVPSP code by D. R. Hamann
     Using radial grid of  602 points,  4 beta functions with:
                l(1) =   0
                l(2) =   0
                l(3) =   1
                l(4) =   1

[...]

     Atomic displacements:
     There are   66 irreducible representations

[...]

     Representation    66      1 modes -  To be done

     Alpha used in Ewald sum =   2.8000

     Reading Grimme-D3 Hessian from file: ./out/Nb3F8.hess

     Number of cells replicated along each semiaxis:   10  10   6
     Number of cells in the supercell:      5733
     Number of atoms in the supercell:    126126
     Hessian allocation dimension:  24972948

     Grimme-D3 Hessian read

     Computing dynamical matrix for q:     0.288675   -0.500000   -0.202430

     Writing Hessian on file dynamical.false.dat

     Dynamical matrix computed

[...]

     Representation #  66 mode #  66

     Self-consistent Calculation

[...]

      thresh= 3.992E-09 alpha_mix =  0.700 |ddv_scf|^2 =  9.925E-17

     End of self-consistent calculation

     Convergence has been achieved

     Number of q in the star =    3
     List of q in the star:
          1   0.288675135  -0.500000000  -0.202430016
          2   0.577350269   0.000000000   0.202430016
          3  -0.288675135  -0.500000000   0.202430016

     Diagonalizing the dynamical matrix

     q = (    0.288675135  -0.500000000  -0.202430016 )

     freq (    1) =       1.792490 [THz] =      59.791019 [cm-1]
     freq (    2) =       1.862782 [THz] =      62.135708 [cm-1]
     freq (    3) =       1.883941 [THz] =      62.841506 [cm-1]
     freq (    4) =       2.019044 [THz] =      67.348048 [cm-1]
     freq (    5) =       2.272891 [THz] =      75.815483 [cm-1]
     freq (    6) =       2.412470 [THz] =      80.471332 [cm-1]
     freq (    7) =       2.693543 [THz] =      89.846930 [cm-1]
     freq (    8) =       2.869297 [THz] =      95.709436 [cm-1]
     freq (    9) =       3.574324 [THz] =     119.226628 [cm-1]
     freq (   10) =       3.695160 [THz] =     123.257286 [cm-1]
     freq (   11) =       3.771585 [THz] =     125.806542 [cm-1]
     freq (   12) =       3.974791 [THz] =     132.584745 [cm-1]
     freq (   13) =       4.433975 [THz] =     147.901477 [cm-1]
     freq (   14) =       4.758060 [THz] =     158.711797 [cm-1]
     freq (   15) =       5.042415 [THz] =     168.196850 [cm-1]
     freq (   16) =       5.145755 [THz] =     171.643910 [cm-1]
     freq (   17) =       5.447191 [THz] =     181.698721 [cm-1]
     freq (   18) =       5.449947 [THz] =     181.790674 [cm-1]
     freq (   19) =       5.879900 [THz] =     196.132340 [cm-1]
     freq (   20) =       6.188551 [THz] =     206.427849 [cm-1]
     freq (   21) =       6.383964 [THz] =     212.946114 [cm-1]
     freq (   22) =       6.577292 [THz] =     219.394832 [cm-1]
     freq (   23) =       6.660547 [THz] =     222.171941 [cm-1]
     freq (   24) =       6.923786 [THz] =     230.952633 [cm-1]
     freq (   25) =       7.080085 [THz] =     236.166218 [cm-1]
     freq (   26) =       7.116679 [THz] =     237.386863 [cm-1]
     freq (   27) =       7.580245 [THz] =     252.849754 [cm-1]
     freq (   28) =       7.580705 [THz] =     252.865088 [cm-1]
     freq (   29) =       8.805940 [THz] =     293.734526 [cm-1]
     freq (   30) =       8.868892 [THz] =     295.834381 [cm-1]
     freq (   31) =       8.997277 [THz] =     300.116859 [cm-1]
     freq (   32) =       9.011151 [THz] =     300.579657 [cm-1]
     freq (   33) =       9.368918 [THz] =     312.513482 [cm-1]
     freq (   34) =       9.439573 [THz] =     314.870247 [cm-1]
     freq (   35) =       9.483802 [THz] =     316.345584 [cm-1]
     freq (   36) =       9.642841 [THz] =     321.650559 [cm-1]
     freq (   37) =       9.661584 [THz] =     322.275747 [cm-1]
     freq (   38) =       9.663447 [THz] =     322.337885 [cm-1]
     freq (   39) =       9.846495 [THz] =     328.443730 [cm-1]
     freq (   40) =      10.203596 [THz] =     340.355329 [cm-1]
     freq (   41) =      10.215189 [THz] =     340.742031 [cm-1]
     freq (   42) =      10.290344 [THz] =     343.248914 [cm-1]
     freq (   43) =      10.339532 [THz] =     344.889655 [cm-1]
     freq (   44) =      10.477273 [THz] =     349.484203 [cm-1]
     freq (   45) =      10.485960 [THz] =     349.773977 [cm-1]
     freq (   46) =      10.509934 [THz] =     350.573663 [cm-1]
     freq (   47) =      10.695962 [THz] =     356.778875 [cm-1]
     freq (   48) =      10.701129 [THz] =     356.951245 [cm-1]
     freq (   49) =      11.110664 [THz] =     370.611849 [cm-1]
     freq (   50) =      11.197850 [THz] =     373.520079 [cm-1]
     freq (   51) =      11.640344 [THz] =     388.280092 [cm-1]
     freq (   52) =      11.822760 [THz] =     394.364810 [cm-1]
     freq (   53) =      12.195101 [THz] =     406.784791 [cm-1]
     freq (   54) =      12.280296 [THz] =     409.626593 [cm-1]
     freq (   55) =      12.426259 [THz] =     414.495390 [cm-1]
     freq (   56) =      12.648988 [THz] =     421.924815 [cm-1]
     freq (   57) =      12.998783 [THz] =     433.592724 [cm-1]
     freq (   58) =      13.299618 [THz] =     443.627503 [cm-1]
     freq (   59) =      14.991390 [THz] =     500.058940 [cm-1]
     freq (   60) =      15.281160 [THz] =     509.724645 [cm-1]
     freq (   61) =      15.553815 [THz] =     518.819416 [cm-1]
     freq (   62) =      15.962386 [THz] =     532.447868 [cm-1]
     freq (   63) =      16.008517 [THz] =     533.986660 [cm-1]
     freq (   64) =      16.239038 [THz] =     541.676017 [cm-1]
     freq (   65) =      16.838419 [THz] =     561.669215 [cm-1]
     freq (   66) =      16.914504 [THz] =     564.207135 [cm-1]

     Mode symmetry, C_2h (2/m)  point group:

     freq (   1-   1) =         59.8  [cm-1]   --> B_g
     freq (   2-   2) =         62.1  [cm-1]   --> B_u
     freq (   3-   3) =         62.8  [cm-1]   --> A_u
     freq (   4-   4) =         67.3  [cm-1]   --> A_g
     freq (   5-   5) =         75.8  [cm-1]   --> B_u
     freq (   6-   6) =         80.5  [cm-1]   --> A_g
     freq (   7-   7) =         89.8  [cm-1]   --> A_u
     freq (   8-   8) =         95.7  [cm-1]   --> B_g
     freq (   9-   9) =        119.2  [cm-1]   --> A_g
     freq (  10-  10) =        123.3  [cm-1]   --> B_u
     freq (  11-  11) =        125.8  [cm-1]   --> A_u
     freq (  12-  12) =        132.6  [cm-1]   --> B_g
     freq (  13-  13) =        147.9  [cm-1]   --> B_u
     freq (  14-  14) =        158.7  [cm-1]   --> A_g
     freq (  15-  15) =        168.2  [cm-1]   --> B_u
     freq (  16-  16) =        171.6  [cm-1]   --> B_g
     freq (  17-  17) =        181.7  [cm-1]   --> A_u
     freq (  18-  18) =        181.8  [cm-1]   --> B_g
     freq (  19-  19) =        196.1  [cm-1]   --> A_g
     freq (  20-  20) =        206.4  [cm-1]   --> A_u
     freq (  21-  21) =        212.9  [cm-1]   --> A_g
     freq (  22-  22) =        219.4  [cm-1]   --> B_u
     freq (  23-  23) =        222.2  [cm-1]   --> A_g
     freq (  24-  24) =        231.0  [cm-1]   --> B_u
     freq (  25-  25) =        236.2  [cm-1]   --> B_g
     freq (  26-  26) =        237.4  [cm-1]   --> A_u
     freq (  27-  27) =        252.8  [cm-1]   --> A_g
     freq (  28-  28) =        252.9  [cm-1]   --> B_u
     freq (  29-  29) =        293.7  [cm-1]   --> B_u
     freq (  30-  30) =        295.8  [cm-1]   --> A_g
     freq (  31-  31) =        300.1  [cm-1]   --> A_u
     freq (  32-  32) =        300.6  [cm-1]   --> B_g
     freq (  33-  33) =        312.5  [cm-1]   --> A_g
     freq (  34-  34) =        314.9  [cm-1]   --> B_u
     freq (  35-  35) =        316.3  [cm-1]   --> A_u
     freq (  36-  36) =        321.7  [cm-1]   --> B_u
     freq (  37-  37) =        322.3  [cm-1]   --> A_g
     freq (  38-  38) =        322.3  [cm-1]   --> B_g
     freq (  39-  39) =        328.4  [cm-1]   --> B_g
     freq (  40-  40) =        340.4  [cm-1]   --> B_u
     freq (  41-  41) =        340.7  [cm-1]   --> A_u
     freq (  42-  42) =        343.2  [cm-1]   --> A_g
     freq (  43-  43) =        344.9  [cm-1]   --> B_u
     freq (  44-  44) =        349.5  [cm-1]   --> B_g
     freq (  45-  45) =        349.8  [cm-1]   --> A_u
     freq (  46-  46) =        350.6  [cm-1]   --> A_g
     freq (  47-  47) =        356.8  [cm-1]   --> A_u
     freq (  48-  48) =        357.0  [cm-1]   --> B_g
     freq (  49-  49) =        370.6  [cm-1]   --> B_g
     freq (  50-  50) =        373.5  [cm-1]   --> A_u
     freq (  51-  51) =        388.3  [cm-1]   --> B_u
     freq (  52-  52) =        394.4  [cm-1]   --> A_g
     freq (  53-  53) =        406.8  [cm-1]   --> B_u
     freq (  54-  54) =        409.6  [cm-1]   --> A_g
     freq (  55-  55) =        414.5  [cm-1]   --> B_g
     freq (  56-  56) =        421.9  [cm-1]   --> A_u
     freq (  57-  57) =        433.6  [cm-1]   --> B_u
     freq (  58-  58) =        443.6  [cm-1]   --> A_g
     freq (  59-  59) =        500.1  [cm-1]   --> B_u
     freq (  60-  60) =        509.7  [cm-1]   --> A_g
     freq (  61-  61) =        518.8  [cm-1]   --> B_g
     freq (  62-  62) =        532.4  [cm-1]   --> A_u
     freq (  63-  63) =        534.0  [cm-1]   --> B_u
     freq (  64-  64) =        541.7  [cm-1]   --> A_g
     freq (  65-  65) =        561.7  [cm-1]   --> B_u
     freq (  66-  66) =        564.2  [cm-1]   --> A_g

     General routines

     Parallel routines

     INITIALIZATION:

     DYNAMICAL MATRIX:

                                        0.00s GPU  (   15375 calls)

                                        0.00s GPU  (    1188 calls)

      General routines

      Additional routines
                                        0.00s GPU  (  477570 calls)
                                        0.00s GPU  (  477570 calls)

   This run was terminated on:  14: 2:41  24May2025

   JOB DONE.