     Program PWSCF v.7.3.1 starts on 21May2025 at 17: 9:45

     Waiting for input...
     Reading input from standard input
Warning: card &CELL ignored
Warning: card / ignored
Warning: card &FCP ignored
Warning: card / ignored
Warning: card &RISM ignored
Warning: card / ignored

     Current dimensions of program PWSCF are:
     Max number of different atomic species (ntypx) = 10
     Max number of k-points (npk) =  40000
     Max angular momentum in pseudopotentials (lmaxx) =  4

     IMPORTANT: XC functional enforced from input :
     Exchange-correlation= PBE
                           (   1   4   3   4   0   0   0)
     Any further DFT definition will be discarded
     Please, verify this is what you really want

     Message from routine setup:
     using ibrav=0 with symmetry is DISCOURAGED, use correct ibrav instead

     K-points division:     npool     =      12
     R & G space division:  proc/nbgrp/npool/nimage =      32
     Subspace diagonalization in iterative solution of the eigenvalue problem:
     a serial algorithm will be used

     Using Slab Decomposition

     bravais-lattice index     =            0
     lattice parameter (alat)  =      11.1557  a.u.
     unit-cell volume          =    1979.8333 (a.u.)^3
     number of atoms/cell      =           22
     number of atomic types    =            2
     number of electrons       =       190.00
     number of Kohn-Sham states=          114
     kinetic-energy cutoff     =     100.0000  Ry
     charge density cutoff     =     400.0000  Ry
     scf convergence threshold =      1.0E-12
     mixing beta               =       0.7000
     number of iterations used =            8  plain     mixing
     Exchange-correlation= PBE
                           (   1   4   3   4   0   0   0)

     celldm(1)=  11.155732  celldm(2)=   0.000000  celldm(3)=   0.000000
     celldm(4)=   0.000000  celldm(5)=   0.000000  celldm(6)=   0.000000

     crystal axes: (cart. coord. in units of alat)
               a(1) = (   0.866025   0.500000   0.000000 )
               a(2) = (  -0.866025   0.500000   0.000000 )
               a(3) = (  -0.577350   0.000000   1.646660 )

     reciprocal axes: (cart. coord. in units 2 pi/alat)
               b(1) = (  0.577350  1.000000  0.202430 )
               b(2) = ( -0.577350  1.000000 -0.202430 )
               b(3) = (  0.000000 -0.000000  0.607290 )

     PseudoPot. # 1 for Nb read from file:
     ./pp/Nb_ONCV_PBE-1.2.upf
     MD5 check sum: 2c750ac0b6910ff4cf0ab5f6c4124a64
     Pseudo is Norm-conserving, Zval = 13.0
     Generated using ONCVPSP code by D. R. Hamann
     Using radial grid of  602 points,  6 beta functions with:
                l(1) =   0
                l(2) =   0
                l(3) =   1
                l(4) =   1
                l(5) =   2
                l(6) =   2

     PseudoPot. # 2 for F  read from file:
     ./pp/F_ONCV_PBE-1.2.upf
     MD5 check sum: 1d8275f47d602dd53cad6bcdc0eda7dc
     Pseudo is Norm-conserving, Zval =  7.0
     Generated using ONCVPSP code by D. R. Hamann
     Using radial grid of  602 points,  4 beta functions with:
                l(1) =   0
                l(2) =   0
                l(3) =   1
                l(4) =   1

     atomic species   valence    mass     pseudopotential
     Nb               13.00    92.90637     Nb( 1.00)
     F                 7.00    18.99840     F ( 1.00)

     12 Sym. Ops., with inversion, found

                                    s                        frac. trans.

      isym =  1     identity

 cryst.   s( 1) = (     1          0          0      )
                  (     0          1          0      )
                  (     0          0          1      )

 cart.    s( 1) = (  1.0000000 -0.0000000 -0.0000000 )
                  ( -0.0000000  1.0000000  0.0000000 )
                  (  0.0000000  0.0000000  1.0000000 )

      isym =  2     180 deg rotation - cart. axis [0,1,0]

[...]

      isym =  3     120 deg rotation - cryst. axis [0,0,1]

[...]

      isym =  6     180 deg rotation - cryst. axis [2,1,0]

[...]

      isym =  7     inversion

[...]

      isym =  8     inv. 180 deg rotation - cart. axis [0,1,0]

[...]

      isym =  9     inv. 120 deg rotation - cryst. axis [0,0,1]

 cryst.   s( 9) = (     0         -1          0      )
                  (     1          1          0      )
                  (     0          1         -1      )

 cart.    s( 9) = (  0.5000000  0.8660254  0.0000000 )
                  ( -0.8660254  0.5000000 -0.0000000 )
                  (  0.0000000  0.0000000 -1.0000000 )

[...]

 cryst.   s(10) = (     1          1          0      )
                  (    -1          0          0      )
                  (    -1          0         -1      )

 cart.    s(10) = (  0.5000000 -0.8660254  0.0000000 )
                  (  0.8660254  0.5000000  0.0000000 )
                  (  0.0000000  0.0000000 -1.0000000 )

[...]

      isym = 12     inv. 180 deg rotation - cryst. axis [2,1,0]

 cryst.   s(12) = (    -1          0          0      )
                  (     1          1          0      )
                  (     1          0          1      )

 cart.    s(12) = ( -0.5000000 -0.8660254 -0.0000000 )
                  ( -0.8660254  0.5000000 -0.0000000 )
                  (  0.0000000  0.0000000  1.0000000 )

   Cartesian axes

     site n.     atom                  positions (alat units)
         1        Nb     tau(   1) = (   0.2522031   0.0000000  -0.4116587  )
         2        Nb     tau(   2) = (  -0.1261016   0.2184143  -0.4116587  )
         3        Nb     tau(   3) = (  -0.1261016  -0.2184143  -0.4116587  )
         4        Nb     tau(   4) = (  -0.2522031  -0.0000000   0.4116587  )
         5        Nb     tau(   5) = (   0.1261016  -0.2184143   0.4116587  )
         6        Nb     tau(   6) = (   0.1261016   0.2184143   0.4116587  )
         7        F      tau(   7) = (   0.0000000   0.0000000  -0.6755959  )
         8        F      tau(   8) = (   0.8569726   0.0000000  -0.5958059  )
         9        F      tau(   9) = (   0.4375391   0.2421601  -0.5958059  )
        10        F      tau(  10) = (   0.4375391  -0.2421601  -0.5958059  )
        11        F      tau(  11) = (   0.5773503  -0.0000000  -0.2213055  )
        12        F      tau(  12) = (  -0.2835895   0.0000000  -0.1869662  )
        13        F      tau(  13) = (   0.1417947  -0.2455957  -0.1869662  )
        14        F      tau(  14) = (   0.1417948   0.2455957  -0.1869662  )
        15        F      tau(  15) = (   0.2835895  -0.0000000   0.1869662  )
        16        F      tau(  16) = (  -0.1417947   0.2455957   0.1869662  )
        17        F      tau(  17) = (  -0.1417948  -0.2455957   0.1869662  )
        18        F      tau(  18) = (  -0.5773503   0.0000000   0.2213055  )
        19        F      tau(  19) = (  -0.8569726  -0.0000000   0.5958059  )
        20        F      tau(  20) = (  -0.4375391  -0.2421601   0.5958059  )
        21        F      tau(  21) = (  -0.4375391   0.2421601   0.5958059  )
        22        F      tau(  22) = (  -0.0000000  -0.0000000   0.6755959  )

     DFT-D3 Dispersion Correction (no 3-body):
       Reference C6 values for interpolation:

         atom   Coordination number   C6
         F          0.000            19.38
         F          0.998            14.27
         Nb         0.000          2950.50
         Nb         1.954          1161.16
         Nb         2.922           857.79

       Values used:

         atom   Coordination number  R0_AB[au]  C6      C8
         Nb         9.493            3.647    857.79 111659.18
         Nb         9.493            3.647    857.79 111659.18
         Nb         9.493            3.647    857.79 111659.18
         Nb         9.493            3.647    857.79 111659.18
         Nb         9.493            3.647    857.79 111659.18
         Nb         9.493            3.647    857.79 111659.18
         F          2.947            2.173     14.27    244.15
         F          2.035            2.173     14.27    244.15
         F          2.035            2.173     14.27    244.15
         F          2.035            2.173     14.27    244.15
         F          2.863            2.173     14.27    244.15
         F          2.050            2.173     14.27    244.15
         F          2.050            2.173     14.27    244.15
         F          2.050            2.173     14.27    244.15
         F          2.050            2.173     14.27    244.15
         F          2.050            2.173     14.27    244.15
         F          2.050            2.173     14.27    244.15
         F          2.863            2.173     14.27    244.15
         F          2.035            2.173     14.27    244.15
         F          2.035            2.173     14.27    244.15
         F          2.035            2.173     14.27    244.15
         F          2.947            2.173     14.27    244.15

         Molecular C6 ( Ry / a.u.^6 ) =     52655.74

   Crystallographic axes

     site n.     atom                  positions (cryst. coord.)
         1        Nb     tau(   1) = (  0.0622775 -0.0622774 -0.2499963  )
         2        Nb     tau(   2) = (  0.0622774  0.3745512 -0.2499963  )
         3        Nb     tau(   3) = ( -0.3745512 -0.0622775 -0.2499963  )
         4        Nb     tau(   4) = ( -0.0622775  0.0622774  0.2499963  )
         5        Nb     tau(   5) = ( -0.0622774 -0.3745512  0.2499963  )
         6        Nb     tau(   6) = (  0.3745512  0.0622775  0.2499963  )
         7        F      tau(   7) = ( -0.1367609  0.1367609 -0.4102826  )
         8        F      tau(   8) = (  0.3741644 -0.3741644 -0.3618270  )
         9        F      tau(   9) = (  0.3741644  0.1101558 -0.3618270  )
        10        F      tau(  10) = ( -0.1101558 -0.3741644 -0.3618270  )
        11        F      tau(  11) = (  0.2885345 -0.2885345 -0.1343966  )
        12        F      tau(  12) = ( -0.2015780  0.2015780 -0.1135427  )
        13        F      tau(  13) = ( -0.2015780 -0.2896134 -0.1135427  )
        14        F      tau(  14) = (  0.2896134  0.2015780 -0.1135427  )
        15        F      tau(  15) = (  0.2015780 -0.2015780  0.1135427  )
        16        F      tau(  16) = (  0.2015780  0.2896134  0.1135427  )
        17        F      tau(  17) = ( -0.2896134 -0.2015780  0.1135427  )
        18        F      tau(  18) = ( -0.2885345  0.2885345  0.1343966  )
        19        F      tau(  19) = ( -0.3741644  0.3741644  0.3618270  )
        20        F      tau(  20) = ( -0.3741644 -0.1101558  0.3618270  )
        21        F      tau(  21) = (  0.1101558  0.3741644  0.3618270  )
        22        F      tau(  22) = (  0.1367609 -0.1367609  0.4102826  )

     number of k points=    32  Gaussian smearing, width (Ry)=  0.0037
                       cart. coord. in units 2pi/alat
        k(    1) = (   0.0000000   0.0000000   0.0000000), wk =   0.0092593
        k(    2) = (   0.0000000   0.0000000   0.1012150), wk =   0.0185185
        k(    3) = (   0.0000000   0.0000000   0.2024300), wk =   0.0185185
        k(    4) = (   0.0000000   0.0000000  -0.3036450), wk =   0.0092593
[...]
     atom    2 type  1   force =     0.00007663   -0.00013272    0.00027861
     atom    3 type  1   force =     0.00007663    0.00013272    0.00027861
     atom    4 type  1   force =     0.00015325    0.00000000   -0.00027861
     atom    5 type  1   force =    -0.00007663    0.00013272   -0.00027861
     atom    6 type  1   force =    -0.00007663   -0.00013272   -0.00027861
     atom    7 type  2   force =     0.00000000   -0.00000000   -0.00019837
     atom    8 type  2   force =    -0.00020311    0.00000000   -0.00043442
     atom    9 type  2   force =     0.00010155   -0.00017590   -0.00043442
     atom   10 type  2   force =     0.00010155    0.00017590   -0.00043442
     atom   11 type  2   force =    -0.00000000   -0.00000000    0.00012297
     atom   12 type  2   force =    -0.00006372   -0.00000000   -0.00010751
     atom   13 type  2   force =     0.00003186   -0.00005518   -0.00010751
     atom   14 type  2   force =     0.00003186    0.00005518   -0.00010751
     atom   15 type  2   force =     0.00006372    0.00000000    0.00010751
     atom   16 type  2   force =    -0.00003186    0.00005518    0.00010751
     atom   17 type  2   force =    -0.00003186   -0.00005518    0.00010751
     atom   18 type  2   force =     0.00000000   -0.00000000   -0.00012297
     atom   19 type  2   force =     0.00020311    0.00000000    0.00043442
     atom   20 type  2   force =    -0.00010155    0.00017590    0.00043442
     atom   21 type  2   force =    -0.00010155   -0.00017590    0.00043442
     atom   22 type  2   force =    -0.00000000   -0.00000000    0.00019837
     The non-local contrib.  to forces
     atom    1 type  1   force =    -0.37480505   -0.00000000   -0.05474877
     atom    2 type  1   force =     0.18740253   -0.32459070   -0.05474877
     atom    3 type  1   force =     0.18740253    0.32459070   -0.05474877
     atom    4 type  1   force =     0.37480505   -0.00000000    0.05474877
     atom    5 type  1   force =    -0.18740253    0.32459070    0.05474877
     atom    6 type  1   force =    -0.18740253   -0.32459070    0.05474877
     atom    7 type  2   force =    -0.00000000    0.00000000    1.51970659
     atom    8 type  2   force =    -0.61872030    0.00000000    0.94754134
     atom    9 type  2   force =     0.30936015   -0.53582750    0.94754134
     atom   10 type  2   force =     0.30936015    0.53582750    0.94754134
     atom   11 type  2   force =     0.00000000    0.00000000   -1.09137126
     atom   12 type  2   force =     0.79636774    0.00000000   -1.16380563
     atom   13 type  2   force =    -0.39818387    0.68967469   -1.16380563
     atom   14 type  2   force =    -0.39818387   -0.68967469   -1.16380563
     atom   15 type  2   force =    -0.79636774   -0.00000000    1.16380563
     atom   16 type  2   force =     0.39818387   -0.68967469    1.16380563
     atom   17 type  2   force =     0.39818387    0.68967469    1.16380563
     atom   18 type  2   force =    -0.00000000   -0.00000000    1.09137126
     atom   19 type  2   force =     0.61872030   -0.00000000   -0.94754134
     atom   20 type  2   force =    -0.30936015    0.53582750   -0.94754134
     atom   21 type  2   force =    -0.30936015   -0.53582750   -0.94754134
     atom   22 type  2   force =    -0.00000000    0.00000000   -1.51970659
     The ionic contribution  to forces
     atom    1 type  1   force =     7.09145472   -0.00000054   -1.79005618
     atom    2 type  1   force =    -3.54572688    6.14138021   -1.79005618
     atom    3 type  1   force =    -3.54572782   -6.14137966   -1.79005618
     atom    4 type  1   force =    -7.09145472    0.00000054    1.79005618
     atom    5 type  1   force =     3.54572688   -6.14138021    1.79005618
     atom    6 type  1   force =     3.54572782    6.14137966    1.79005618
     atom    7 type  2   force =     0.00000000   -0.00000000  -15.11729605
     atom    8 type  2   force =     7.65539339   -0.00000079  -10.50634834
     atom    9 type  2   force =    -3.82769602    6.62976554  -10.50634835
     atom   10 type  2   force =    -3.82769739   -6.62976475  -10.50634835
     atom   11 type  2   force =    -0.00000000   -0.00000000   11.99651629
     atom   12 type  2   force =    -9.53100865   -0.00000048   10.23942551
     atom   13 type  2   force =     4.76550473   -8.25409538   10.23942550
     atom   14 type  2   force =     4.76550391    8.25409585   10.23942550
     atom   15 type  2   force =     9.53100865    0.00000048  -10.23942551
     atom   16 type  2   force =    -4.76550473    8.25409538  -10.23942550
     atom   17 type  2   force =    -4.76550391   -8.25409585  -10.23942550
     atom   18 type  2   force =     0.00000000    0.00000000  -11.99651629
     atom   19 type  2   force =    -7.65539339    0.00000079   10.50634834
     atom   20 type  2   force =     3.82769602   -6.62976554   10.50634835
     atom   21 type  2   force =     3.82769739    6.62976475   10.50634835
     atom   22 type  2   force =    -0.00000000   -0.00000000   15.11729605
     The local contribution  to forces
     atom    1 type  1   force =    -6.71580860   -0.00000302    1.84494607
     atom    2 type  1   force =     3.35790697   -5.81605937    1.84494607
     atom    3 type  1   force =     3.35790173    5.81606239    1.84494607
     atom    4 type  1   force =     6.71580860    0.00000302   -1.84494607
     atom    5 type  1   force =    -3.35790697    5.81605937   -1.84494607
     atom    6 type  1   force =    -3.35790173   -5.81606239   -1.84494607
     atom    7 type  2   force =     0.00000000    0.00000000   13.59813937
     atom    8 type  2   force =    -7.03697928   -0.00000324    9.55868900
     atom    9 type  2   force =     3.51849239   -6.09420116    9.55868901
     atom   10 type  2   force =     3.51848677    6.09420440    9.55868901
     atom   11 type  2   force =    -0.00000000   -0.00000000  -10.90563811
     atom   12 type  2   force =     8.73494068   -0.00000346   -9.07617647
     atom   13 type  2   force =    -4.36746735    7.56468226   -9.07617647
     atom   14 type  2   force =    -4.36747333   -7.56467880   -9.07617647
     atom   15 type  2   force =    -8.73494068    0.00000346    9.07617647
     atom   16 type  2   force =     4.36746735   -7.56468226    9.07617647
     atom   17 type  2   force =     4.36747333    7.56467880    9.07617647
     atom   18 type  2   force =     0.00000000    0.00000000   10.90563811
     atom   19 type  2   force =     7.03697928    0.00000324   -9.55868900
     atom   20 type  2   force =    -3.51849239    6.09420116   -9.55868901
     atom   21 type  2   force =    -3.51848677   -6.09420440   -9.55868901
     atom   22 type  2   force =    -0.00000000   -0.00000000  -13.59813937
     The core correction contribution to forces
     atom    1 type  1   force =     0.00000000    0.00000000    0.00000000
     atom    2 type  1   force =     0.00000000    0.00000000    0.00000000
     atom    3 type  1   force =     0.00000000    0.00000000    0.00000000
     atom    4 type  1   force =     0.00000000    0.00000000    0.00000000
     atom    5 type  1   force =     0.00000000    0.00000000    0.00000000
     atom    6 type  1   force =     0.00000000    0.00000000    0.00000000
     atom    7 type  2   force =     0.00000000    0.00000000    0.00000000
     atom    8 type  2   force =     0.00000000    0.00000000    0.00000000
     atom    9 type  2   force =     0.00000000    0.00000000    0.00000000
     atom   10 type  2   force =     0.00000000    0.00000000    0.00000000
     atom   11 type  2   force =     0.00000000    0.00000000    0.00000000
     atom   12 type  2   force =     0.00000000    0.00000000    0.00000000
     atom   13 type  2   force =     0.00000000    0.00000000    0.00000000
     atom   14 type  2   force =     0.00000000    0.00000000    0.00000000
     atom   15 type  2   force =     0.00000000    0.00000000    0.00000000
     atom   16 type  2   force =     0.00000000    0.00000000    0.00000000
     atom   17 type  2   force =     0.00000000    0.00000000    0.00000000
     atom   18 type  2   force =     0.00000000    0.00000000    0.00000000
     atom   19 type  2   force =     0.00000000    0.00000000    0.00000000
     atom   20 type  2   force =     0.00000000    0.00000000    0.00000000
     atom   21 type  2   force =     0.00000000    0.00000000    0.00000000
     atom   22 type  2   force =     0.00000000    0.00000000    0.00000000
     The Hubbard contrib.    to forces
     atom    1 type  1   force =     0.00000000    0.00000000    0.00000000
     atom    2 type  1   force =     0.00000000    0.00000000    0.00000000
     atom    3 type  1   force =     0.00000000    0.00000000    0.00000000
     atom    4 type  1   force =     0.00000000    0.00000000    0.00000000
     atom    5 type  1   force =     0.00000000    0.00000000    0.00000000
     atom    6 type  1   force =     0.00000000    0.00000000    0.00000000
     atom    7 type  2   force =     0.00000000    0.00000000    0.00000000
     atom    8 type  2   force =     0.00000000    0.00000000    0.00000000
     atom    9 type  2   force =     0.00000000    0.00000000    0.00000000
     atom   10 type  2   force =     0.00000000    0.00000000    0.00000000
     atom   11 type  2   force =     0.00000000    0.00000000    0.00000000
     atom   12 type  2   force =     0.00000000    0.00000000    0.00000000
     atom   13 type  2   force =     0.00000000    0.00000000    0.00000000
     atom   14 type  2   force =     0.00000000    0.00000000    0.00000000
     atom   15 type  2   force =     0.00000000    0.00000000    0.00000000
     atom   16 type  2   force =     0.00000000    0.00000000    0.00000000
     atom   17 type  2   force =     0.00000000    0.00000000    0.00000000
     atom   18 type  2   force =     0.00000000    0.00000000    0.00000000
     atom   19 type  2   force =     0.00000000    0.00000000    0.00000000
     atom   20 type  2   force =     0.00000000    0.00000000    0.00000000
     atom   21 type  2   force =     0.00000000    0.00000000    0.00000000
     atom   22 type  2   force =     0.00000000    0.00000000    0.00000000
     The SCF correction term to forces
     atom    1 type  1   force =     0.00000040   -0.00000000   -0.00000127
     atom    2 type  1   force =    -0.00000020    0.00000035   -0.00000127
     atom    3 type  1   force =    -0.00000020   -0.00000035   -0.00000127
     atom    4 type  1   force =    -0.00000040    0.00000000    0.00000127
     atom    5 type  1   force =     0.00000020   -0.00000035    0.00000127
     atom    6 type  1   force =     0.00000020    0.00000035    0.00000127
     atom    7 type  2   force =     0.00000000   -0.00000000   -0.00000012
     atom    8 type  2   force =    -0.00000012   -0.00000000   -0.00000022
     atom    9 type  2   force =     0.00000006   -0.00000010   -0.00000022
     atom   10 type  2   force =     0.00000006    0.00000010   -0.00000022
     atom   11 type  2   force =    -0.00000000   -0.00000000   -0.00000060
     atom   12 type  2   force =    -0.00000000   -0.00000000   -0.00000050
     atom   13 type  2   force =     0.00000000   -0.00000000   -0.00000050
     atom   14 type  2   force =     0.00000000    0.00000000   -0.00000050
     atom   15 type  2   force =     0.00000000    0.00000000    0.00000050
     atom   16 type  2   force =    -0.00000000    0.00000000    0.00000050
     atom   17 type  2   force =    -0.00000000   -0.00000000    0.00000050
     atom   18 type  2   force =     0.00000000    0.00000000    0.00000060
     atom   19 type  2   force =     0.00000012    0.00000000    0.00000022
     atom   20 type  2   force =    -0.00000006    0.00000010    0.00000022
     atom   21 type  2   force =    -0.00000006   -0.00000010    0.00000022
     atom   22 type  2   force =    -0.00000000    0.00000000    0.00000012

     DFT-D3 dispersion contribution to forces:
     atom    1 type  1   force =    -0.00099469    0.00000000    0.00013876
     atom    2 type  1   force =     0.00049734   -0.00086143    0.00013876
     atom    3 type  1   force =     0.00049734    0.00086143    0.00013876
     atom    4 type  1   force =     0.00099469   -0.00000000   -0.00013876
     atom    5 type  1   force =    -0.00049734    0.00086143   -0.00013876
     atom    6 type  1   force =    -0.00049734   -0.00086143   -0.00013876
     atom    7 type  2   force =     0.00000000   -0.00000000   -0.00074815
     atom    8 type  2   force =     0.00010316    0.00000000   -0.00031620
     atom    9 type  2   force =    -0.00005158    0.00008934   -0.00031620
     atom   10 type  2   force =    -0.00005158   -0.00008934   -0.00031620
     atom   11 type  2   force =     0.00000000   -0.00000000    0.00061666
     atom   12 type  2   force =    -0.00036349    0.00000000    0.00044959
     atom   13 type  2   force =     0.00018174   -0.00031479    0.00044959
     atom   14 type  2   force =     0.00018174    0.00031479    0.00044959
     atom   15 type  2   force =     0.00036349   -0.00000000   -0.00044959
     atom   16 type  2   force =    -0.00018174    0.00031479   -0.00044959
     atom   17 type  2   force =    -0.00018174   -0.00031479   -0.00044959
     atom   18 type  2   force =    -0.00000000   -0.00000000   -0.00061666
     atom   19 type  2   force =    -0.00010316   -0.00000000    0.00031620
     atom   20 type  2   force =     0.00005158   -0.00008934    0.00031620
     atom   21 type  2   force =     0.00005158    0.00008934    0.00031620
     atom   22 type  2   force =    -0.00000000    0.00000000    0.00074815

     Total force =     0.001480     Total SCF correction =     0.000004

     DFT-D3 dispersion Force =     0.003256

     Computing stress (Cartesian axis) and pressure

          total   stress  (Ry/bohr**3)                   (kbar)     P=       16.45
   0.00012140  -0.00000000  -0.00000000           17.86       -0.00       -0.00
   0.00000000   0.00012140   0.00000000            0.00       17.86        0.00
   0.00000000  -0.00000000   0.00009266            0.00       -0.00       13.63

     kinetic stress (kbar)  35986.48     -0.00      0.00
                               -0.00  35986.48      0.00
                                0.00      0.00  35970.54

     local   stress (kbar) -25998.07      0.00     -0.00
                                0.00 -25998.07      0.00
                               -0.00      0.00  -5341.89

     nonloc. stress (kbar)   1771.30     -0.00     -0.00
                               -0.00   1771.30     -0.00
                               -0.00      0.00   1801.72

     hartree stress (kbar)  13405.18     -0.00     -0.00
                               -0.00  13405.18      0.00
                               -0.00      0.00   5529.83

     exc-cor stress (kbar)  -5416.08      0.00     -0.00
                                0.00  -5416.08     -0.00
                               -0.00     -0.00  -5428.10

     corecor stress (kbar)      0.00      0.00      0.00
                                0.00      0.00      0.00
                                0.00      0.00      0.00

     ewald   stress (kbar) -19709.86     -0.00      0.00
                               -0.00 -19709.86     -0.00
                                0.00     -0.00 -32493.98

     hubbard stress (kbar)      0.00      0.00      0.00
                                0.00      0.00      0.00
                                0.00      0.00      0.00

     DFT-D   stress (kbar)    -21.09     -0.00      0.00
                               -0.00    -21.09     -0.00
                                0.00     -0.00    -24.50

     XDM     stress (kbar)      0.00      0.00      0.00
                                0.00      0.00      0.00
                                0.00      0.00      0.00

     dft-nl  stress (kbar)      0.00      0.00      0.00
                                0.00      0.00      0.00
                                0.00      0.00      0.00

     TS-vdW  stress (kbar)      0.00      0.00      0.00
                                0.00      0.00      0.00
                                0.00      0.00      0.00

     MDB     stress (kbar)      0.00      0.00      0.00
                                0.00      0.00      0.00
                                0.00      0.00      0.00

     3D-RISM stress (kbar)      0.00      0.00      0.00
                                0.00      0.00      0.00
                                0.00      0.00      0.00

     Writing all to output data dir ./out/Nb3F8.save/ :
     XML data file, charge density, pseudopotentials, collected wavefunctions

     General routines

     Parallel routines

   This run was terminated on:  17:12:10  21May2025

   JOB DONE.