     Program PWSCF v.7.3.1 starts on  7May2025 at 23:17:42

     Waiting for input...
     Reading input from standard input
Warning: card &CELL ignored
Warning: card / ignored
Warning: card &FCP ignored
Warning: card / ignored
Warning: card &RISM ignored
Warning: card / ignored

     Current dimensions of program PWSCF are:
     Max number of different atomic species (ntypx) = 10
     Max number of k-points (npk) =  40000
     Max angular momentum in pseudopotentials (lmaxx) =  4

     File ./out/Nb3I8.update deleted, as requested

     File ./out/Nb3I8.md deleted, as requested

     File ./out/Nb3I8.bfgs deleted, as requested

     IMPORTANT: XC functional enforced from input :
     Exchange-correlation= PBE
                           (   1   4   3   4   0   0   0)
     Any further DFT definition will be discarded
     Please, verify this is what you really want

     Message from routine setup:
     using ibrav=0 with symmetry is DISCOURAGED, use correct ibrav instead
     Message from routine setup:
     Dynamics, you should have no symmetries

     K-points division:     npool     =      16
     R & G space division:  proc/nbgrp/npool/nimage =      24
     Subspace diagonalization in iterative solution of the eigenvalue problem:
     one sub-group per band group will be used

     Message from routine divide_et_impera:
     suboptimal parallelization: some nodes have no k-points

     Using Slab Decomposition

     bravais-lattice index     =            0
     lattice parameter (alat)  =      14.4200  a.u.
     unit-cell volume          =   11694.9391 (a.u.)^3
     number of atoms/cell      =           22
     number of atomic types    =            2
     number of electrons       =       350.00
     number of Kohn-Sham states=          210
     kinetic-energy cutoff     =     100.0000  Ry
     charge density cutoff     =     400.0000  Ry
     scf convergence threshold =      1.0E-12
     mixing beta               =       0.7000
     number of iterations used =            8  plain     mixing
     energy convergence thresh.=      1.0E-04
     force convergence thresh. =      1.0E-06
     Exchange-correlation= PBE
                           (   1   4   3   4   0   0   0)
     nstep                     =           50

     celldm(1)=  14.419985  celldm(2)=   0.000000  celldm(3)=   0.000000
     celldm(4)=   0.000000  celldm(5)=   0.000000  celldm(6)=   0.000000

     crystal axes: (cart. coord. in units of alat)
               a(1) = (   0.866025   0.500000   0.000000 )
               a(2) = (  -0.866025   0.500000   0.000000 )
               a(3) = (   0.000000   0.000000   4.503735 )

     reciprocal axes: (cart. coord. in units 2 pi/alat)
               b(1) = (  0.577350  1.000000 -0.000000 )
               b(2) = ( -0.577350  1.000000  0.000000 )
               b(3) = (  0.000000 -0.000000  0.222038 )

     PseudoPot. # 1 for Nb read from file:
     /scratch-shared/mroesner/Nb3X8_cDFPT/pp/Nb_ONCV_PBE-1.2.upf
     MD5 check sum: 2c750ac0b6910ff4cf0ab5f6c4124a64
     Pseudo is Norm-conserving, Zval = 13.0
     Generated using ONCVPSP code by D. R. Hamann
     Using radial grid of  602 points,  6 beta functions with:
                l(1) =   0
                l(2) =   0
                l(3) =   1
                l(4) =   1
                l(5) =   2
                l(6) =   2

     PseudoPot. # 2 for I  read from file:
     /scratch-shared/mroesner/Nb3X8_cDFPT/pp/I_ONCV_PBE-1.2.upf
     MD5 check sum: 8277ef51204d8074ead4596f3b37a2aa
     Pseudo is Norm-conserving, Zval = 17.0
     Generated using ONCVPSP code by D. R. Hamann
     Using radial grid of  602 points,  6 beta functions with:
                l(1) =   0
                l(2) =   0
                l(3) =   1
                l(4) =   1
                l(5) =   2
                l(6) =   2

     atomic species   valence    mass     pseudopotential
     Nb               13.00    92.90637     Nb( 1.00)
     I                17.00   126.90447     I ( 1.00)

      6 Sym. Ops. (no inversion) found

                                    s                        frac. trans.

      isym =  1     identity

 cryst.   s( 1) = (     1          0          0      )
                  (     0          1          0      )
                  (     0          0          1      )

 cart.    s( 1) = (  1.0000000  0.0000000  0.0000000 )
                  (  0.0000000  1.0000000  0.0000000 )
                  (  0.0000000  0.0000000  1.0000000 )

      isym =  2     120 deg rotation - cryst. axis [0,0,1]

[...]

      isym =  3     120 deg rotation - cryst. axis [0,0,-1]

[...]

      isym =  4     inv. 180 deg rotation - cart. axis [0,1,0]

[...]

      isym =  5     inv. 180 deg rotation - cryst. axis [1,-1,0]

[...]

      isym =  6     inv. 180 deg rotation - cryst. axis [2,1,0]

 cryst.   s( 6) = (    -1          0          0      )
                  (     1          1          0      )
                  (     0          0          1      )

 cart.    s( 6) = ( -0.5000000 -0.8660254  0.0000000 )
                  ( -0.8660254  0.5000000  0.0000000 )
                  (  0.0000000  0.0000000  1.0000000 )

   Cartesian axes

     site n.     atom                  positions (alat units)
         1        Nb     tau(   1) = (  -1.2164679   0.5000000   1.3528985  )
         2        Nb     tau(   2) = (  -0.6908042   0.1965079   1.3528985  )
         3        Nb     tau(   3) = (  -0.6908042   0.8034921   1.3528985  )
         4        Nb     tau(   4) = (   0.6391177   0.5000000   0.4485939  )
         5        Nb     tau(   5) = (   0.1134539   0.8034921   0.4485939  )
         6        Nb     tau(   6) = (   0.1134539   0.1965079   0.4485939  )
         7        I      tau(   7) = (   0.2886751   0.5000000   1.0717580  )
         8        I      tau(   8) = (  -0.5701471   0.5000000   1.1527723  )
         9        I      tau(   9) = (  -0.1479392   0.2562381   1.1527723  )
        10        I      tau(  10) = (  -0.1479392   0.7437619   1.1527723  )
        11        I      tau(  11) = (  -0.8660254   0.5000000   1.5444513  )
        12        I      tau(  12) = (   0.0011534   0.5000000   1.6044897  )
        13        I      tau(  13) = (  -0.4335894   0.7509988   1.6044897  )
        14        I      tau(  14) = (  -0.4335894   0.2490012   1.6044897  )
        15        I      tau(  15) = (  -0.5785037   0.5000000   0.1969996  )
        16        I      tau(  16) = (  -0.1437608   0.2490011   0.1969996  )
        17        I      tau(  17) = (  -0.1437608   0.7509989   0.1969996  )
        18        I      tau(  18) = (   0.2886751   0.5000000   0.2570285  )
        19        I      tau(  19) = (  -0.0071968   0.5000000   0.6487337  )
        20        I      tau(  20) = (  -0.4294143   0.7437673   0.6487337  )
        21        I      tau(  21) = (  -0.4294143   0.2562327   0.6487337  )
        22        I      tau(  22) = (  -0.8660254   0.5000000   0.7297353  )

     DFT-D3 Dispersion Correction (no 3-body):
       Reference C6 values for interpolation:

         atom   Coordination number   C6
         Nb         0.000          2950.50
         Nb         1.954          1161.16
         Nb         2.922           857.79
         I          0.000           703.93
         I          0.997           717.00

       Values used:

         atom   Coordination number  R0_AB[au]  C6      C8
         Nb         7.908            3.647    857.79 111659.18
         Nb         7.908            3.647    857.79 111659.18
         Nb         7.908            3.647    857.79 111659.18
         Nb         7.907            3.647    857.79 111659.18
         Nb         7.907            3.647    857.79 111659.18
         Nb         7.907            3.647    857.79 111659.18
         I          4.710            3.532    717.00  65856.01
         I          4.071            3.532    717.00  65856.01
         I          4.071            3.532    717.00  65856.01
         I          4.071            3.532    717.00  65856.01
         I          4.873            3.532    717.00  65856.01
         I          3.592            3.532    717.00  65856.01
         I          3.592            3.532    717.00  65856.01
         I          3.592            3.532    717.00  65856.01
         I          3.592            3.532    717.00  65856.01
         I          3.592            3.532    717.00  65856.01
         I          3.592            3.532    717.00  65856.01
         I          4.873            3.532    717.00  65856.01
         I          4.071            3.532    717.00  65856.01
         I          4.071            3.532    717.00  65856.01
         I          4.071            3.532    717.00  65856.01
         I          4.710            3.532    717.00  65856.01

         Molecular C6 ( Ry / a.u.^6 ) =    363889.37

   Crystallographic axes

     site n.     atom                  positions (cryst. coord.)
         1        Nb     tau(   1) = ( -0.2023280  1.2023280  0.3003947  )
         2        Nb     tau(   2) = ( -0.2023280  0.5953439  0.3003947  )
         3        Nb     tau(   3) = (  0.4046561  1.2023280  0.3003947  )
         4        Nb     tau(   4) = (  0.8689948  0.1310052  0.0996048  )
         5        Nb     tau(   5) = (  0.8689948  0.7379895  0.0996048  )
         6        Nb     tau(   6) = (  0.2620105  0.1310052  0.0996048  )
         7        I      tau(   7) = (  0.6666667  0.3333333  0.2379709  )
         8        I      tau(   8) = (  0.1708254  0.8291746  0.2559591  )
         9        I      tau(   9) = (  0.1708254  0.3416509  0.2559591  )
        10        I      tau(  10) = (  0.6583491  0.8291746  0.2559591  )
        11        I      tau(  11) = (  0.0000000  1.0000000  0.3429267  )
        12        I      tau(  12) = (  0.5006659  0.4993341  0.3562575  )
        13        I      tau(  13) = (  0.5006659  1.0013318  0.3562575  )
        14        I      tau(  14) = ( -0.0013318  0.4993341  0.3562575  )
        15        I      tau(  15) = (  0.1660007  0.8339993  0.0437414  )
        16        I      tau(  16) = (  0.1660007  0.3320015  0.0437414  )
        17        I      tau(  17) = (  0.6679985  0.8339993  0.0437414  )
        18        I      tau(  18) = (  0.6666667  0.3333333  0.0570701  )
        19        I      tau(  19) = (  0.4958449  0.5041551  0.1440435  )
        20        I      tau(  20) = (  0.4958449  0.9916898  0.1440435  )
        21        I      tau(  21) = (  0.0083102  0.5041551  0.1440435  )
        22        I      tau(  22) = (  0.0000000  1.0000000  0.1620289  )

     number of k points=     7  Marzari-Vanderbilt smearing, width (Ry)=  0.0037
                       cart. coord. in units 2pi/alat
        k(    1) = (   0.0000000   0.0000000   0.0000000), wk =   0.0555556
        k(    2) = (  -0.0962250   0.1666667   0.0000000), wk =   0.3333333
        k(    3) = (  -0.1924501   0.3333333   0.0000000), wk =   0.3333333
        k(    4) = (   0.2886751  -0.5000000   0.0000000), wk =   0.1666667
        k(    5) = (  -0.0000000   0.3333333   0.0000000), wk =   0.3333333
        k(    6) = (  -0.0962250   0.5000000   0.0000000), wk =   0.6666667
[...]
     atom    7 type  2   force =    -0.00000000   -0.00000000    0.66753286
     atom    8 type  2   force =    -0.24845034    0.00000000    0.33582761
     atom    9 type  2   force =     0.12422517   -0.21516430    0.33582761
     atom   10 type  2   force =     0.12422517    0.21516430    0.33582761
     atom   11 type  2   force =    -0.00000000    0.00000000   -0.37908318
     atom   12 type  2   force =     0.29363111   -0.00000000   -0.43801079
     atom   13 type  2   force =    -0.14681555    0.25429200   -0.43801079
     atom   14 type  2   force =    -0.14681555   -0.25429200   -0.43801079
     atom   15 type  2   force =    -0.29362182    0.00000000    0.43800436
     atom   16 type  2   force =     0.14681091   -0.25428395    0.43800436
     atom   17 type  2   force =     0.14681091    0.25428395    0.43800436
     atom   18 type  2   force =    -0.00000000    0.00000000    0.37907262
     atom   19 type  2   force =     0.24842671    0.00000000   -0.33581742
     atom   20 type  2   force =    -0.12421336    0.21514384   -0.33581742
     atom   21 type  2   force =    -0.12421336   -0.21514384   -0.33581742
     atom   22 type  2   force =     0.00000000    0.00000000   -0.66751760
     The ionic contribution  to forces
     atom    1 type  1   force =     7.64754932   -0.00000000   92.19787507
     atom    2 type  1   force =    -3.82377466    6.62297198   92.19787507
     atom    3 type  1   force =    -3.82377466   -6.62297198   92.19787507
     atom    4 type  1   force =    -7.64809672   -0.00000000  -92.19851282
     atom    5 type  1   force =     3.82404836   -6.62344605  -92.19851282
     atom    6 type  1   force =     3.82404836    6.62344605  -92.19851282
     atom    7 type  2   force =     0.00000000   -0.00000000   18.79902331
     atom    8 type  2   force =     7.08670369   -0.00000000   52.05961852
     atom    9 type  2   force =    -3.54335185    6.13726543   52.05961852
     atom   10 type  2   force =    -3.54335185   -6.13726542   52.05961852
     atom   11 type  2   force =     0.00000000   -0.00000000  191.32044535
     atom   12 type  2   force =   -11.90241775   -0.00000000  207.14454962
     atom   13 type  2   force =     5.95120888  -10.30779614  207.14454962
     atom   14 type  2   force =     5.95120888   10.30779614  207.14454962
     atom   15 type  2   force =    11.90256404   -0.00000000 -207.14306121
     atom   16 type  2   force =    -5.95128202   10.30792283 -207.14306122
     atom   17 type  2   force =    -5.95128202  -10.30792283 -207.14306121
     atom   18 type  2   force =    -0.00000000   -0.00000000 -191.32161973
     atom   19 type  2   force =    -7.08766684   -0.00000000  -52.05949811
     atom   20 type  2   force =     3.54383342   -6.13809954  -52.05949812
     atom   21 type  2   force =     3.54383342    6.13809954  -52.05949812
     atom   22 type  2   force =    -0.00000000   -0.00000000  -18.80076211
     The local contribution  to forces
     atom    1 type  1   force =    -7.49147407   -0.00000000  -92.16191762
     atom    2 type  1   force =     3.74573702   -6.48780686  -92.16191762
     atom    3 type  1   force =     3.74573702    6.48780686  -92.16191762
     atom    4 type  1   force =     7.49201784   -0.00000000   92.16255450
     atom    5 type  1   force =    -3.74600891    6.48827779   92.16255450
     atom    6 type  1   force =    -3.74600891   -6.48827778   92.16255450
     atom    7 type  2   force =    -0.00000001   -0.00000000  -19.46634943
     atom    8 type  2   force =    -6.83979665   -0.00000000  -52.39352592
     atom    9 type  2   force =     3.41989832   -5.92343766  -52.39352592
     atom   10 type  2   force =     3.41989832    5.92343767  -52.39352592
     atom   11 type  2   force =     0.00000000   -0.00000000 -190.94170021
     atom   12 type  2   force =    11.60896960   -0.00000000 -206.70491189
     atom   13 type  2   force =    -5.80448481   10.05366258 -206.70491189
     atom   14 type  2   force =    -5.80448481  -10.05366257 -206.70491189
     atom   15 type  2   force =   -11.60912582   -0.00000000  206.70343397
     atom   16 type  2   force =     5.80456291  -10.05379785  206.70343397
     atom   17 type  2   force =     5.80456291   10.05379786  206.70343397
     atom   18 type  2   force =    -0.00000001   -0.00000000  190.94288992
     atom   19 type  2   force =     6.84078352   -0.00000000   52.39340083
     atom   20 type  2   force =    -3.42039175    5.92429233   52.39340083
     atom   21 type  2   force =    -3.42039175   -5.92429233   52.39340083
     atom   22 type  2   force =     0.00000000   -0.00000000   19.46807855
     The core correction contribution to forces
     atom    1 type  1   force =     0.00000000    0.00000000    0.00000000
     atom    2 type  1   force =     0.00000000    0.00000000    0.00000000
     atom    3 type  1   force =     0.00000000    0.00000000    0.00000000
     atom    4 type  1   force =     0.00000000    0.00000000    0.00000000
     atom    5 type  1   force =     0.00000000    0.00000000    0.00000000
     atom    6 type  1   force =     0.00000000    0.00000000    0.00000000
     atom    7 type  2   force =     0.00000000    0.00000000    0.00000000
     atom    8 type  2   force =     0.00000000    0.00000000    0.00000000
     atom    9 type  2   force =     0.00000000    0.00000000    0.00000000
     atom   10 type  2   force =     0.00000000    0.00000000    0.00000000
     atom   11 type  2   force =     0.00000000    0.00000000    0.00000000
     atom   12 type  2   force =     0.00000000    0.00000000    0.00000000
     atom   13 type  2   force =     0.00000000    0.00000000    0.00000000
     atom   14 type  2   force =     0.00000000    0.00000000    0.00000000
     atom   15 type  2   force =     0.00000000    0.00000000    0.00000000
     atom   16 type  2   force =     0.00000000    0.00000000    0.00000000
     atom   17 type  2   force =     0.00000000    0.00000000    0.00000000
     atom   18 type  2   force =     0.00000000    0.00000000    0.00000000
     atom   19 type  2   force =     0.00000000    0.00000000    0.00000000
     atom   20 type  2   force =     0.00000000    0.00000000    0.00000000
     atom   21 type  2   force =     0.00000000    0.00000000    0.00000000
     atom   22 type  2   force =     0.00000000    0.00000000    0.00000000
     The Hubbard contrib.    to forces
     atom    1 type  1   force =     0.00000000    0.00000000    0.00000000
     atom    2 type  1   force =     0.00000000    0.00000000    0.00000000
     atom    3 type  1   force =     0.00000000    0.00000000    0.00000000
     atom    4 type  1   force =     0.00000000    0.00000000    0.00000000
     atom    5 type  1   force =     0.00000000    0.00000000    0.00000000
     atom    6 type  1   force =     0.00000000    0.00000000    0.00000000
     atom    7 type  2   force =     0.00000000    0.00000000    0.00000000
     atom    8 type  2   force =     0.00000000    0.00000000    0.00000000
     atom    9 type  2   force =     0.00000000    0.00000000    0.00000000
     atom   10 type  2   force =     0.00000000    0.00000000    0.00000000
     atom   11 type  2   force =     0.00000000    0.00000000    0.00000000
     atom   12 type  2   force =     0.00000000    0.00000000    0.00000000
     atom   13 type  2   force =     0.00000000    0.00000000    0.00000000
     atom   14 type  2   force =     0.00000000    0.00000000    0.00000000
     atom   15 type  2   force =     0.00000000    0.00000000    0.00000000
     atom   16 type  2   force =     0.00000000    0.00000000    0.00000000
     atom   17 type  2   force =     0.00000000    0.00000000    0.00000000
     atom   18 type  2   force =     0.00000000    0.00000000    0.00000000
     atom   19 type  2   force =     0.00000000    0.00000000    0.00000000
     atom   20 type  2   force =     0.00000000    0.00000000    0.00000000
     atom   21 type  2   force =     0.00000000    0.00000000    0.00000000
     atom   22 type  2   force =     0.00000000    0.00000000    0.00000000
     The SCF correction term to forces
     atom    1 type  1   force =    -0.00000035   -0.00000000    0.00000013
     atom    2 type  1   force =     0.00000018   -0.00000030    0.00000013
     atom    3 type  1   force =     0.00000018    0.00000030    0.00000013
     atom    4 type  1   force =     0.00000075   -0.00000000   -0.00000030
     atom    5 type  1   force =    -0.00000037    0.00000065   -0.00000030
     atom    6 type  1   force =    -0.00000037   -0.00000065   -0.00000030
     atom    7 type  2   force =     0.00000000    0.00000000    0.00000020
     atom    8 type  2   force =    -0.00000021    0.00000000   -0.00000037
     atom    9 type  2   force =     0.00000011   -0.00000018   -0.00000037
     atom   10 type  2   force =     0.00000011    0.00000018   -0.00000037
     atom   11 type  2   force =    -0.00000000   -0.00000000   -0.00000159
     atom   12 type  2   force =     0.00000067   -0.00000000   -0.00000182
     atom   13 type  2   force =    -0.00000034    0.00000058   -0.00000182
     atom   14 type  2   force =    -0.00000034   -0.00000058   -0.00000182
     atom   15 type  2   force =    -0.00000050    0.00000000    0.00000082
     atom   16 type  2   force =     0.00000025   -0.00000043    0.00000082
     atom   17 type  2   force =     0.00000025    0.00000043    0.00000082
     atom   18 type  2   force =    -0.00000000   -0.00000000    0.00000068
     atom   19 type  2   force =     0.00000048    0.00000000   -0.00000126
     atom   20 type  2   force =    -0.00000024    0.00000042   -0.00000126
     atom   21 type  2   force =    -0.00000024   -0.00000042   -0.00000126
     atom   22 type  2   force =    -0.00000000   -0.00000000   -0.00000262

     DFT-D3 dispersion contribution to forces:
     atom    1 type  1   force =     0.00000398    0.00000000   -0.00212139
     atom    2 type  1   force =    -0.00000199    0.00000345   -0.00212139
     atom    3 type  1   force =    -0.00000199   -0.00000345   -0.00212139
     atom    4 type  1   force =    -0.00000387    0.00000000    0.00212135
     atom    5 type  1   force =     0.00000193   -0.00000335    0.00212135
     atom    6 type  1   force =     0.00000193    0.00000335    0.00212135
     atom    7 type  2   force =     0.00000000    0.00000000   -0.00020431
     atom    8 type  2   force =     0.00154336    0.00000000   -0.00191729
     atom    9 type  2   force =    -0.00077168    0.00133659   -0.00191729
     atom   10 type  2   force =    -0.00077168   -0.00133659   -0.00191729
     atom   11 type  2   force =    -0.00000000    0.00000000    0.00034218
     atom   12 type  2   force =    -0.00018370    0.00000000   -0.00162253
     atom   13 type  2   force =     0.00009185   -0.00015909   -0.00162253
     atom   14 type  2   force =     0.00009185    0.00015909   -0.00162253
     atom   15 type  2   force =     0.00018391    0.00000000    0.00162307
     atom   16 type  2   force =    -0.00009195    0.00015927    0.00162307
     atom   17 type  2   force =    -0.00009195   -0.00015927    0.00162307
     atom   18 type  2   force =     0.00000000    0.00000000   -0.00034254
     atom   19 type  2   force =    -0.00154378    0.00000000    0.00191676
     atom   20 type  2   force =     0.00077189   -0.00133695    0.00191676
     atom   21 type  2   force =     0.00077189    0.00133695    0.00191676
     atom   22 type  2   force =    -0.00000000    0.00000000    0.00020475

     Total force =     0.000004     Total SCF correction =     0.000006

     DFT-D3 dispersion Force =     0.008926
     SCF correction compared to forces is large: reduce conv_thr to get better values

     Computing stress (Cartesian axis) and pressure

          total   stress  (Ry/bohr**3)                   (kbar)     P=       -0.06
  -0.00000039   0.00000000   0.00000000           -0.06        0.00        0.00
   0.00000000  -0.00000039   0.00000000            0.00       -0.06        0.00
   0.00000000   0.00000000  -0.00000040            0.00        0.00       -0.06

     kinetic stress (kbar)  13344.05      0.00     -0.00
                               -0.00  13344.05     -0.00
                                0.00      0.00  13318.37

     local   stress (kbar)-440919.55      0.00     -0.00
                                0.00-440919.55      0.00
                               -0.00      0.00 433902.33

     nonloc. stress (kbar)  -1064.03     -0.00     -0.00
                               -0.00  -1064.03     -0.00
                                0.00      0.00  -1051.71

     hartree stress (kbar) 221033.05     -0.00     -0.00
                               -0.00 221033.05      0.00
                               -0.00      0.00-213387.00

     exc-cor stress (kbar)  -1572.33     -0.00      0.00
                               -0.00  -1572.33      0.00
                                0.00      0.00  -1573.34

     corecor stress (kbar)      0.00      0.00      0.00
                                0.00      0.00      0.00
                                0.00      0.00      0.00

     ewald   stress (kbar) 209182.34      0.00      0.00
                                0.00 209182.34     -0.00
                                0.00     -0.00-231205.95

     hubbard stress (kbar)      0.00      0.00      0.00
                                0.00      0.00      0.00
                                0.00      0.00      0.00

     DFT-D   stress (kbar)     -3.59     -0.00     -0.00
                               -0.00     -3.59      0.00
                               -0.00      0.00     -2.76

     XDM     stress (kbar)      0.00      0.00      0.00
                                0.00      0.00      0.00
                                0.00      0.00      0.00

     dft-nl  stress (kbar)      0.00      0.00      0.00
                                0.00      0.00      0.00
                                0.00      0.00      0.00

     TS-vdW  stress (kbar)      0.00      0.00      0.00
                                0.00      0.00      0.00
                                0.00      0.00      0.00

     MDB     stress (kbar)      0.00      0.00      0.00
                                0.00      0.00      0.00
                                0.00      0.00      0.00

     3D-RISM stress (kbar)      0.00      0.00      0.00
                                0.00      0.00      0.00
                                0.00      0.00      0.00

     Damped Dynamics: convergence achieved in  23 steps

     End of damped dynamics calculation

     Final energy =   -3864.9316038317 Ry

Begin final coordinates
     new unit-cell volume =  11694.93906 a.u.^3 (  1733.01117 Ang^3 )
     density =      2.47969 g/cm^3

CELL_PARAMETERS (angstrom)
   6.608404008   3.815363833   0.000000000
  -6.608404008   3.815363833   0.000000000
   0.000000000   0.000000000  34.366778354

ATOMIC_POSITIONS (angstrom)
Nb              -9.2825350068        3.8153638329       10.3236420944
Nb              -5.2713385083        1.4994984547       10.3236420944
Nb              -5.2713385083        6.1312292110       10.3236420944
Nb               4.8769330780        3.8153638329        3.4230569807
Nb               0.8657354648        6.1312298544        3.4230569807
Nb               0.8657354648        1.4994978113        3.4230569807
I                2.2028013360        3.8153638329        8.1783307747
I               -4.3506402417        3.8153638329        8.7965276603
I               -1.1288818831        1.9552807774        8.7965276603
I               -1.1288818831        5.6754468883        8.7965276603
I               -6.6084040079        3.8153638329       11.7853314077
I                0.0088017810        3.8153638329       12.2434663197
I               -3.3086028944        5.7306683153       12.2434663197
I               -3.3086028944        1.9000593504       12.2434663197
I               -4.4144045201        3.8153638329        1.5032072254
I               -1.0969997439        1.9000592922        1.5032072254
I               -1.0969997439        5.7306683735        1.5032072254
I                2.2028013360        3.8153638329        1.9612700737
I               -0.0549140103        3.8153638329        4.9502729097
I               -3.2767449988        5.6754888212        4.9502729097
I               -3.2767449988        1.9552388445        4.9502729097
I               -6.6084040079        3.8153638329        5.5683729316
End final coordinates

     Writing all to output data dir ./out/Nb3I8.save/ :
     XML data file, charge density, pseudopotentials, collected wavefunctions

     General routines

     Parallel routines

   This run was terminated on:  23:52:27   7May2025

   JOB DONE.